Rigid sphere storage; placeholder density 1 kg/m3 never enters overdamped solve

3 atoms
1 atom types

-3.1999999999999999e-05 3.1999999999999999e-05 xlo xhi
-3.1999999999999999e-05 3.1999999999999999e-05 ylo yhi
-3.1999999999999999e-05 3.1999999999999999e-05 zlo zhi

Atoms # sphere

3 1 1.3e-06 1 -7.2163334080887128e-07 -4.8053137624535462e-07 0
1 1 2.0999999999999998e-06 1 9.9041077683818738e-07 -4.8053137624535462e-07 0
2 1 1.7e-06 1 -2.6877743602931615e-07 9.6106275249070904e-07 0

Velocities

3 0 0 0 0 0 0
1 0 0 0 0 0 0
2 0 0 0 0 0 0
