ITEM: TIMESTEP
17331
ITEM: NUMBER OF ATOMS
1
ITEM: BOX BOUNDS pp pp pp
8.0090314919576298e-05 1.7844071187841779e-04
5.5701359566515553e-05 1.5485135324859965e-04
1.1143341591952393e-04 1.6720528736569626e-04
ITEM: ATOMS id diameter mass xu yu zu vx vy vz fx fy fz
1 1.9747135334638193e-06 4.0319109353476521e-15 0.00014735643199687842 0.00012876454297917536 0.00012792511823681829 4.8899645641045436e-05 3.7562153607854921e-05 2.2771184694437305e-05 6.1703682135769885e-15 4.7404239089765657e-15 2.8715246476184113e-15
