LAMMPS (2 Sep 2026)
KOKKOS mode with Kokkos version 5.2.1 is enabled
  using double precision
  using view layout = legacy
  will use up to 1 GPU(s) per node
Reading data file ...
  orthogonal box = (-4e-05 -4e-05 -4e-05) to (4e-05 4e-05 4e-05)
  1 by 1 by 1 MPI processor grid
  reading atoms ...
  1000 atoms
  reading velocities ...
  1000 velocities
  read_data CPU = 0.012 seconds

CITE-CITE-CITE-CITE-CITE-CITE-CITE-CITE-CITE-CITE-CITE-CITE-CITE

Your simulation uses code contributions which should be cited:
- KOKKOS package: https://doi.org/10.1145/3731599.3767498
The log file lists these citations in BibTeX format.

CITE-CITE-CITE-CITE-CITE-CITE-CITE-CITE-CITE-CITE-CITE-CITE-CITE

Generated 0 of 0 mixed pair_coeff terms from geometric mixing rule
Neighbor list info ...
  update: every = 1 steps, delay = 0 steps, check = no
  max neighbors/atom: 2000, page size: 100000
  master list distance cutoff = 7e-06
  ghost atom cutoff = 7e-06
  binsize = 7e-06, bins = 12 12 12
  1 neighbor lists, perpetual/occasional/extra = 1 0 0
  (1) pair zero, perpetual
      attributes: half, newton off
      pair build: half/bin/atomonly/newtoff
      stencil: full/bin/3d
      bin: standard
Setting up Verlet run ...
  Unit style    : si
  Current step  : 0
  Time step     : 6.249999999999999e-11
Per MPI rank memory allocation (min/avg/max) = 4.135 | 4.135 | 4.135 Mbytes
   Step        Atoms         Time          KinEng    
         0        1000  0 0
Loop time of 0.000306051 on 1 procs for 0 steps with 1000 atoms

27.4% CPU use with 1 MPI tasks x 1 OpenMP threads

MPI task timing breakdown:
Section |  min time  |  avg time  |  max time  |%varavg| %total
---------------------------------------------------------------
Pair    | 0          | 0          | 0          |   0.0 |  0.00
Neigh   | 0          | 0          | 0          |   0.0 |  0.00
Comm    | 0          | 0          | 0          |   0.0 |  0.00
Output  | 0          | 0          | 0          |   0.0 |  0.00
Modify  | 0          | 0          | 0          |   0.0 |  0.00
Other   |            | 0.0003061  |            |       |100.00

Nlocal:           1000 ave        1000 max        1000 min
Histogram: 1 0 0 0 0 0 0 0 0 0
Nghost:            728 ave         728 max         728 min
Histogram: 1 0 0 0 0 0 0 0 0 0
Neighs:              0 ave           0 max           0 min
Histogram: 1 0 0 0 0 0 0 0 0 0

Total # of neighbors = 0
Ave neighs/atom = 0
Neighbor list builds = 0
Dangerous builds not checked
Generated 0 of 0 mixed pair_coeff terms from geometric mixing rule
Setting up Verlet run ...
  Unit style    : si
  Current step  : 0
  Time step     : 6.249999999999999e-11
Per MPI rank memory allocation (min/avg/max) = 4.135 | 4.135 | 4.135 Mbytes
   Step        Atoms         Time          KinEng    
         0        1000  0 0
       100        1000  6.2499999999999989e-09 1.9215579265142186e-21
       200        1000  1.2499999999999998e-08 7.3847918323083029e-21
       300        1000  1.8749999999999996e-08 1.5977891113332782e-20
       400        1000  2.4999999999999996e-08 2.733708057326968e-20
       500        1000  3.1249999999999999e-08 4.1140305848856084e-20
       600        1000  3.7499999999999992e-08 5.7101855488047068e-20
       700        1000  4.3749999999999991e-08 7.4967766215308821e-20
       800        1000  4.9999999999999991e-08 9.4511885054042986e-20
       900        1000  5.6249999999999991e-08 1.155324840323382e-19
      1000        1000  6.2499999999999997e-08 1.3784934116729095e-19
Loop time of 2.55925 on 1 procs for 1000 steps with 1000 atoms

103.2% CPU use with 1 MPI tasks x 1 OpenMP threads

MPI task timing breakdown:
Section |  min time  |  avg time  |  max time  |%varavg| %total
---------------------------------------------------------------
Pair    | 0.055547   | 0.055547   | 0.055547   |   0.0 |  2.17
Neigh   | 0.33875    | 0.33875    | 0.33875    |   0.0 | 13.24
Comm    | 0.24612    | 0.24612    | 0.24612    |   0.0 |  9.62
Output  | 0.0016903  | 0.0016903  | 0.0016903  |   0.0 |  0.07
Modify  | 1.8749     | 1.8749     | 1.8749     |   0.0 | 73.26
Other   |            | 0.04223    |            |       |  1.65

Nlocal:           1000 ave        1000 max        1000 min
Histogram: 1 0 0 0 0 0 0 0 0 0
Nghost:            728 ave         728 max         728 min
Histogram: 1 0 0 0 0 0 0 0 0 0
Neighs:              0 ave           0 max           0 min
Histogram: 1 0 0 0 0 0 0 0 0 0

Total # of neighbors = 0
Ave neighs/atom = 0
Neighbor list builds = 1000
Dangerous builds not checked
COUPLING_CASE_COMPLETED
Total wall time: 0:00:02
Collecting data...
Generating '/tmp/nsys-report-7225.qdstrm'
[1/1] [0%                          ] kokkos_host_fix_trace.nsys-rep[1/1] [0%                          ] kokkos_host_fix_trace.nsys-rep[1/1] [0%                          ] kokkos_host_fix_trace.nsys-rep[1/1] [7%                          ] kokkos_host_fix_trace.nsys-rep[1/1] [9%                          ] kokkos_host_fix_trace.nsys-rep[1/1] [11%                         ] kokkos_host_fix_trace.nsys-rep[1/1] [14%                         ] kokkos_host_fix_trace.nsys-rep[1/1] [=16%                        ] kokkos_host_fix_trace.nsys-rep[1/1] [==18%                       ] kokkos_host_fix_trace.nsys-rep[1/1] [==21%                       ] kokkos_host_fix_trace.nsys-rep[1/1] [===23%                      ] kokkos_host_fix_trace.nsys-rep[1/1] [====25%                     ] kokkos_host_fix_trace.nsys-rep[1/1] [====28%                     ] kokkos_host_fix_trace.nsys-rep[1/1] [=====30%                    ] kokkos_host_fix_trace.nsys-rep[1/1] [=====32%                    ] kokkos_host_fix_trace.nsys-rep[1/1] [======35%                   ] kokkos_host_fix_trace.nsys-rep[1/1] [=======37%                  ] kokkos_host_fix_trace.nsys-rep[1/1] [=======39%                  ] kokkos_host_fix_trace.nsys-rep[1/1] [========42%                 ] kokkos_host_fix_trace.nsys-rep[1/1] [=========44%                ] kokkos_host_fix_trace.nsys-rep[1/1] [=========46%                ] kokkos_host_fix_trace.nsys-rep[1/1] [==========49%               ] kokkos_host_fix_trace.nsys-rep[1/1] [===========50%              ] kokkos_host_fix_trace.nsys-rep[1/1] [========================100%] kokkos_host_fix_trace.nsys-rep[1/1] [========================100%] kokkos_host_fix_trace.nsys-rep
Generated:
	/workspace/microbubble_lammps/results/lammps2026_bubble_interaction_20260916_091244/migration/coupling/cases/kokkos_compatibility/kokkos_host_fix_trace.nsys-rep
