ITEM: TIMESTEP
16670
ITEM: NUMBER OF ATOMS
1
ITEM: BOX BOUNDS pp pp pp
-4.0000000000000003e-05 4.0000000000000003e-05
-4.0000000000000003e-05 4.0000000000000003e-05
-4.0000000000000003e-05 4.0000000000000003e-05
ITEM: ATOMS id diameter mass xu yu zu vx vy vz fx fy fz
1 1.9366458735485509e-06 3.8032008966515393e-15 8.3494215052173836e-10 -1.6698843010434893e-10 2.5048264515652247e-10 0.00099326847582881673 -0.00019865369516576561 0.00029798054274864794 1.2288528767165777e-13 -2.4577057534289702e-14 3.686558630144272e-14
