LAMMPS (22 Jul 2025 - Update 6)
units si
atom_style sphere
boundary p p p
newton off
processors 1 1 1
read_data particles.data
Reading data file ...
  orthogonal box = (8.0090315e-05 5.570136e-05 0.00011143342) to (0.00017844071 0.00015485135 0.00016720529)
  1 by 1 by 1 MPI processor grid
  reading atoms ...
  1 atoms
  reading velocities ...
  1 velocities
  read_data CPU = 0.001 seconds
comm_modify vel yes
pair_style zero 6e-6
pair_coeff * *
neighbor 1e-6 bin
neigh_modify every 1 delay 0 check no
fix integrator all nve/sphere
fix coupling all frozen/flow/drag ../../fields/FROZEN_FLOW_FIELD_V0.h5 0.001 1 trajectory 2.38282920197874e-06 0.00014735638926236119 0.00012876451015280939 0.00012792509833640283 5.9969754243196026e-07
timestep 6.2499999999999991e-11
thermo 1733
thermo_style custom step atoms time ke
thermo_modify lost error norm no format float %.17g
run 0
Generated 0 of 0 mixed pair_coeff terms from geometric mixing rule
Neighbor list info ...
  update: every = 1 steps, delay = 0 steps, check = no
  max neighbors/atom: 2000, page size: 100000
  master list distance cutoff = 7e-06
  ghost atom cutoff = 7e-06
  binsize = 3.5e-06, bins = 29 29 16
  1 neighbor lists, perpetual/occasional/extra = 1 0 0
  (1) pair zero, perpetual
      attributes: half, newton off
      pair build: half/bin/atomonly/newtoff
      stencil: full/bin/3d
      bin: standard
Per MPI rank memory allocation (min/avg/max) = 3.899 | 3.899 | 3.899 Mbytes
   Step        Atoms         Time          KinEng    
         0           1  0 0
Loop time of 8.21e-07 on 1 procs for 0 steps with 1 atoms

0.0% CPU use with 1 MPI tasks x no OpenMP threads

MPI task timing breakdown:
Section |  min time  |  avg time  |  max time  |%varavg| %total
---------------------------------------------------------------
Pair    | 0          | 0          | 0          |   0.0 |  0.00
Neigh   | 0          | 0          | 0          |   0.0 |  0.00
Comm    | 0          | 0          | 0          |   0.0 |  0.00
Output  | 0          | 0          | 0          |   0.0 |  0.00
Modify  | 0          | 0          | 0          |   0.0 |  0.00
Other   |            | 8.21e-07   |            |       |100.00

Nlocal:              1 ave           1 max           1 min
Histogram: 1 0 0 0 0 0 0 0 0 0
Nghost:              0 ave           0 max           0 min
Histogram: 1 0 0 0 0 0 0 0 0 0
Neighs:              0 ave           0 max           0 min
Histogram: 1 0 0 0 0 0 0 0 0 0

Total # of neighbors = 0
Ave neighs/atom = 0
Neighbor list builds = 0
Dangerous builds not checked
write_dump all custom initial.dump id diameter mass xu yu zu vx vy vz fx fy fz modify sort id format float %.17g
run 17331
Generated 0 of 0 mixed pair_coeff terms from geometric mixing rule
Per MPI rank memory allocation (min/avg/max) = 3.899 | 3.899 | 3.899 Mbytes
   Step        Atoms         Time          KinEng    
         0           1  0 0
      1733           1  1.0831249999999998e-07 0
      3466           1  2.1662499999999997e-07 0
      5199           1  3.2493749999999993e-07 0
      6932           1  4.3324999999999994e-07 0
      8665           1  5.4156249999999995e-07 0
     10398           1  6.4987499999999986e-07 0
     12131           1  7.5818749999999987e-07 0
     13864           1  8.6649999999999988e-07 0
     15597           1  9.7481249999999978e-07 0
     17330           1  1.0831249999999999e-06 0
     17331           1  1.0831874999999998e-06 0
Loop time of 0.203465 on 1 procs for 17331 steps with 1 atoms

100.0% CPU use with 1 MPI tasks x no OpenMP threads

MPI task timing breakdown:
Section |  min time  |  avg time  |  max time  |%varavg| %total
---------------------------------------------------------------
Pair    | 0.00046472 | 0.00046472 | 0.00046472 |   0.0 |  0.23
Neigh   | 0.11792    | 0.11792    | 0.11792    |   0.0 | 57.96
Comm    | 0.0028748  | 0.0028748  | 0.0028748  |   0.0 |  1.41
Output  | 4.3931e-05 | 4.3931e-05 | 4.3931e-05 |   0.0 |  0.02
Modify  | 0.080461   | 0.080461   | 0.080461   |   0.0 | 39.55
Other   |            | 0.001701   |            |       |  0.84

Nlocal:              1 ave           1 max           1 min
Histogram: 1 0 0 0 0 0 0 0 0 0
Nghost:              0 ave           0 max           0 min
Histogram: 1 0 0 0 0 0 0 0 0 0
Neighs:              0 ave           0 max           0 min
Histogram: 1 0 0 0 0 0 0 0 0 0

Total # of neighbors = 0
Ave neighs/atom = 0
Neighbor list builds = 17331
Dangerous builds not checked
write_dump all custom final.dump id diameter mass xu yu zu vx vy vz fx fy fz modify sort id format float %.17g
print "COUPLING_CASE_COMPLETED"
COUPLING_CASE_COMPLETED
Total wall time: 0:00:00
