LAMMPS (22 Jul 2025 - Update 6)
KOKKOS mode with Kokkos version 4.6.2 is enabled
  will use up to 1 GPU(s) per node
Reading data file ...
  orthogonal box = (-4e-05 -4e-05 -4e-05) to (4e-05 4e-05 4e-05)
  1 by 1 by 1 MPI processor grid
  reading atoms ...
  1000 atoms
  reading velocities ...
  1000 velocities
  read_data CPU = 0.011 seconds
Generated 0 of 0 mixed pair_coeff terms from geometric mixing rule
Neighbor list info ...
  update: every = 1 steps, delay = 0 steps, check = no
  max neighbors/atom: 2000, page size: 100000
  master list distance cutoff = 7e-06
  ghost atom cutoff = 7e-06
  binsize = 7e-06, bins = 12 12 12
  1 neighbor lists, perpetual/occasional/extra = 1 0 0
  (1) pair zero, perpetual
      attributes: half, newton off
      pair build: half/bin/atomonly/newtoff
      stencil: full/bin/3d
      bin: standard
Setting up Verlet run ...
  Unit style    : si
  Current step  : 0
  Time step     : 6.249999999999999e-11
Per MPI rank memory allocation (min/avg/max) = 4.135 | 4.135 | 4.135 Mbytes
   Step        Atoms         Time          KinEng    
         0        1000  0 0
Loop time of 0.00030556 on 1 procs for 0 steps with 1000 atoms

27.5% CPU use with 1 MPI tasks x 1 OpenMP threads

MPI task timing breakdown:
Section |  min time  |  avg time  |  max time  |%varavg| %total
---------------------------------------------------------------
Pair    | 0          | 0          | 0          |   0.0 |  0.00
Neigh   | 0          | 0          | 0          |   0.0 |  0.00
Comm    | 0          | 0          | 0          |   0.0 |  0.00
Output  | 0          | 0          | 0          |   0.0 |  0.00
Modify  | 0          | 0          | 0          |   0.0 |  0.00
Other   |            | 0.0003056  |            |       |100.00

Nlocal:           1000 ave        1000 max        1000 min
Histogram: 1 0 0 0 0 0 0 0 0 0
Nghost:            728 ave         728 max         728 min
Histogram: 1 0 0 0 0 0 0 0 0 0
Neighs:              0 ave           0 max           0 min
Histogram: 1 0 0 0 0 0 0 0 0 0

Total # of neighbors = 0
Ave neighs/atom = 0
Neighbor list builds = 0
Dangerous builds not checked
Generated 0 of 0 mixed pair_coeff terms from geometric mixing rule
Setting up Verlet run ...
  Unit style    : si
  Current step  : 0
  Time step     : 6.249999999999999e-11
Per MPI rank memory allocation (min/avg/max) = 4.135 | 4.135 | 4.135 Mbytes
   Step        Atoms         Time          KinEng    
         0        1000  0 0
       100        1000  6.2499999999999989e-09 1.9215579265142198e-21
       200        1000  1.2499999999999998e-08 7.3847918323083044e-21
       300        1000  1.8749999999999996e-08 1.5977891113332782e-20
       400        1000  2.4999999999999996e-08 2.733708057326968e-20
       500        1000  3.1249999999999999e-08 4.1140305848856096e-20
       600        1000  3.7499999999999992e-08 5.7101855488047093e-20
       700        1000  4.3749999999999991e-08 7.4967766215308821e-20
       800        1000  4.9999999999999991e-08 9.4511885054042986e-20
       900        1000  5.6249999999999991e-08 1.155324840323382e-19
      1000        1000  6.2499999999999997e-08 1.3784934116729095e-19
Loop time of 2.73187 on 1 procs for 1000 steps with 1000 atoms

102.7% CPU use with 1 MPI tasks x 1 OpenMP threads

MPI task timing breakdown:
Section |  min time  |  avg time  |  max time  |%varavg| %total
---------------------------------------------------------------
Pair    | 0.11012    | 0.11012    | 0.11012    |   0.0 |  4.03
Neigh   | 0.447      | 0.447      | 0.447      |   0.0 | 16.36
Comm    | 0.24659    | 0.24659    | 0.24659    |   0.0 |  9.03
Output  | 0.0018026  | 0.0018026  | 0.0018026  |   0.0 |  0.07
Modify  | 1.8832     | 1.8832     | 1.8832     |   0.0 | 68.93
Other   |            | 0.04316    |            |       |  1.58

Nlocal:           1000 ave        1000 max        1000 min
Histogram: 1 0 0 0 0 0 0 0 0 0
Nghost:            728 ave         728 max         728 min
Histogram: 1 0 0 0 0 0 0 0 0 0
Neighs:              0 ave           0 max           0 min
Histogram: 1 0 0 0 0 0 0 0 0 0

Total # of neighbors = 0
Ave neighs/atom = 0
Neighbor list builds = 1000
Dangerous builds not checked
COUPLING_CASE_COMPLETED
Total wall time: 0:00:03
Kokkos::Cuda ERROR: Failed to call Kokkos::Cuda::finalize()
Collecting data...
Generating '/tmp/nsys-report-18f4.qdstrm'
[1/1] [0%                          ] kokkos_host_fix_trace.nsys-rep[1/1] [0%                          ] kokkos_host_fix_trace.nsys-rep[1/1] [0%                          ] kokkos_host_fix_trace.nsys-rep[1/1] [6%                          ] kokkos_host_fix_trace.nsys-rep[1/1] [8%                          ] kokkos_host_fix_trace.nsys-rep[1/1] [10%                         ] kokkos_host_fix_trace.nsys-rep[1/1] [13%                         ] kokkos_host_fix_trace.nsys-rep[1/1] [=15%                        ] kokkos_host_fix_trace.nsys-rep[1/1] [=17%                        ] kokkos_host_fix_trace.nsys-rep[1/1] [==19%                       ] kokkos_host_fix_trace.nsys-rep[1/1] [==21%                       ] kokkos_host_fix_trace.nsys-rep[1/1] [===23%                      ] kokkos_host_fix_trace.nsys-rep[1/1] [====26%                     ] kokkos_host_fix_trace.nsys-rep[1/1] [====28%                     ] kokkos_host_fix_trace.nsys-rep[1/1] [=====30%                    ] kokkos_host_fix_trace.nsys-rep[1/1] [=====32%                    ] kokkos_host_fix_trace.nsys-rep[1/1] [======34%                   ] kokkos_host_fix_trace.nsys-rep[1/1] [=======36%                  ] kokkos_host_fix_trace.nsys-rep[1/1] [=======39%                  ] kokkos_host_fix_trace.nsys-rep[1/1] [========41%                 ] kokkos_host_fix_trace.nsys-rep[1/1] [=========43%                ] kokkos_host_fix_trace.nsys-rep[1/1] [=========45%                ] kokkos_host_fix_trace.nsys-rep[1/1] [==========47%               ] kokkos_host_fix_trace.nsys-rep[1/1] [==========49%               ] kokkos_host_fix_trace.nsys-rep[1/1] [===========50%              ] kokkos_host_fix_trace.nsys-rep[1/1] [========================100%] kokkos_host_fix_trace.nsys-rep[1/1] [========================100%] kokkos_host_fix_trace.nsys-rep
Generated:
	/workspace/microbubble_lammps/results/palabos_lammps_coupling_v0_20260915_224019/cases/kokkos_compatibility/kokkos_host_fix_trace.nsys-rep
