LAMMPS (2 Sep 2026)
Reading data file ...
  orthogonal box = (-4e-05 -4e-05 -4e-05) to (4e-05 4e-05 4e-05)
  1 by 1 by 1 MPI processor grid
  reading atoms ...
  1 atoms
  reading velocities ...
  1 velocities
  read_data CPU = 0.000 seconds
Generated 0 of 0 mixed pair_coeff terms from geometric mixing rule
Neighbor list info ...
  update: every = 1 steps, delay = 0 steps, check = no
  max neighbors/atom: 2000, page size: 100000
  master list distance cutoff = 7e-06
  ghost atom cutoff = 7e-06
  binsize = 3.5e-06, bins = 23 23 23
  1 neighbor lists, perpetual/occasional/extra = 1 0 0
  (1) pair zero, perpetual
      attributes: half, newton off
      pair build: half/bin/atomonly/newtoff
      stencil: full/bin/3d
      bin: standard
Setting up Verlet run ...
  Unit style    : si
  Current step  : 0
  Time step     : 6.249999999999999e-11
Per MPI rank memory allocation (min/avg/max) = 3.89 | 3.89 | 3.89 Mbytes
   Step        Atoms         Time          KinEng    
         0           1  0 0
Loop time of 8.61e-07 on 1 procs for 0 steps with 1 atoms

116.1% CPU use with 1 MPI tasks x no OpenMP threads

MPI task timing breakdown:
Section |  min time  |  avg time  |  max time  |%varavg| %total
---------------------------------------------------------------
Pair    | 0          | 0          | 0          |   0.0 |  0.00
Neigh   | 0          | 0          | 0          |   0.0 |  0.00
Comm    | 0          | 0          | 0          |   0.0 |  0.00
Output  | 0          | 0          | 0          |   0.0 |  0.00
Modify  | 0          | 0          | 0          |   0.0 |  0.00
Other   |            | 8.61e-07   |            |       |100.00

Nlocal:              1 ave           1 max           1 min
Histogram: 1 0 0 0 0 0 0 0 0 0
Nghost:              0 ave           0 max           0 min
Histogram: 1 0 0 0 0 0 0 0 0 0
Neighs:              0 ave           0 max           0 min
Histogram: 1 0 0 0 0 0 0 0 0 0

Total # of neighbors = 0
Ave neighs/atom = 0
Neighbor list builds = 0
Dangerous builds not checked
Generated 0 of 0 mixed pair_coeff terms from geometric mixing rule
Setting up Verlet run ...
  Unit style    : si
  Current step  : 0
  Time step     : 6.249999999999999e-11
Per MPI rank memory allocation (min/avg/max) = 3.89 | 3.89 | 3.89 Mbytes
   Step        Atoms         Time          KinEng    
         0           1  0 0
       759           1  4.7437499999999991e-08 0
      1518           1  9.4874999999999981e-08 0
      2277           1  1.4231249999999997e-07 0
      3036           1  1.8974999999999996e-07 0
      3795           1  2.3718749999999995e-07 0
      4554           1  2.8462499999999994e-07 0
      5313           1  3.3206249999999993e-07 0
      6072           1  3.7949999999999992e-07 0
      6831           1  4.2693749999999991e-07 0
      7590           1  4.7437499999999991e-07 0
Loop time of 0.077978 on 1 procs for 7590 steps with 1 atoms

100.0% CPU use with 1 MPI tasks x no OpenMP threads

MPI task timing breakdown:
Section |  min time  |  avg time  |  max time  |%varavg| %total
---------------------------------------------------------------
Pair    | 0.00020433 | 0.00020433 | 0.00020433 |   0.0 |  0.26
Neigh   | 0.042437   | 0.042437   | 0.042437   |   0.0 | 54.42
Comm    | 0.001216   | 0.001216   | 0.001216   |   0.0 |  1.56
Output  | 4.7038e-05 | 4.7038e-05 | 4.7038e-05 |   0.0 |  0.06
Modify  | 0.033322   | 0.033322   | 0.033322   |   0.0 | 42.73
Other   |            | 0.0007513  |            |       |  0.96

Nlocal:              1 ave           1 max           1 min
Histogram: 1 0 0 0 0 0 0 0 0 0
Nghost:              0 ave           0 max           0 min
Histogram: 1 0 0 0 0 0 0 0 0 0
Neighs:              0 ave           0 max           0 min
Histogram: 1 0 0 0 0 0 0 0 0 0

Total # of neighbors = 0
Ave neighs/atom = 0
Neighbor list builds = 7590
Dangerous builds not checked
COUPLING_CASE_COMPLETED
Total wall time: 0:00:00
