ITEM: TIMESTEP
200
ITEM: NUMBER OF ATOMS
2
ITEM: BOX BOUNDS pp pp pp
0.0000000000000000e+00 1.0000000000000000e-04
0.0000000000000000e+00 1.0000000000000000e-04
0.0000000000000000e+00 1.0000000000000000e-04
ITEM: ATOMS id type diameter radius mass x y z xu yu zu vx vy vz omegax omegay omegaz fx fy fz proc ix iy iz
1 1 1.3949101415011013e-06 6.9745507075055066e-07 1.4211414860926609e-15 4.9217253295830098e-05 5.0000000000000002e-05 5.0000000000000002e-05 4.9217253295830098e-05 5.0000000000000002e-05 5.0000000000000002e-05 -0.018680919407057496 0 0 0 0 0 0 0 0 0 0 0 0
2 1 1.683013313136548e-06 8.41506656568274e-07 2.4960959548922156e-15 5.0771026472267838e-05 5.0000000000000002e-05 5.0000000000000002e-05 5.0771026472267838e-05 5.0000000000000002e-05 5.0000000000000002e-05 0.010635901042061255 0 0 0 0 0 0 0 0 0 0 0 0
