LAMMPS (2 Sep 2026)
Reading data file ...
  orthogonal box = (8.0090315e-05 5.570136e-05 0.00011143342) to (0.00017844071 0.00015485135 0.00016720529)
  1 by 1 by 1 MPI processor grid
  reading atoms ...
  1 atoms
  reading velocities ...
  1 velocities
  read_data CPU = 0.000 seconds
Generated 0 of 0 mixed pair_coeff terms from geometric mixing rule
Neighbor list info ...
  update: every = 1 steps, delay = 0 steps, check = no
  max neighbors/atom: 2000, page size: 100000
  master list distance cutoff = 7e-06
  ghost atom cutoff = 7e-06
  binsize = 3.5e-06, bins = 29 29 16
  1 neighbor lists, perpetual/occasional/extra = 1 0 0
  (1) pair zero, perpetual
      attributes: half, newton off
      pair build: half/bin/atomonly/newtoff
      stencil: full/bin/3d
      bin: standard
Setting up Verlet run ...
  Unit style    : si
  Current step  : 0
  Time step     : 0.00011583498841157342
Per MPI rank memory allocation (min/avg/max) = 3.899 | 3.899 | 3.899 Mbytes
   Step        Atoms         Time     
         0           1  0
Loop time of 8.42e-07 on 1 procs for 0 steps with 1 atoms

118.8% CPU use with 1 MPI tasks x no OpenMP threads

MPI task timing breakdown:
Section |  min time  |  avg time  |  max time  |%varavg| %total
---------------------------------------------------------------
Pair    | 0          | 0          | 0          |   0.0 |  0.00
Neigh   | 0          | 0          | 0          |   0.0 |  0.00
Comm    | 0          | 0          | 0          |   0.0 |  0.00
Output  | 0          | 0          | 0          |   0.0 |  0.00
Modify  | 0          | 0          | 0          |   0.0 |  0.00
Other   |            | 8.42e-07   |            |       |100.00

Nlocal:              1 ave           1 max           1 min
Histogram: 1 0 0 0 0 0 0 0 0 0
Nghost:              0 ave           0 max           0 min
Histogram: 1 0 0 0 0 0 0 0 0 0
Neighs:              0 ave           0 max           0 min
Histogram: 1 0 0 0 0 0 0 0 0 0

Total # of neighbors = 0
Ave neighs/atom = 0
Neighbor list builds = 0
Dangerous builds not checked
Generated 0 of 0 mixed pair_coeff terms from geometric mixing rule
Setting up Verlet run ...
  Unit style    : si
  Current step  : 0
  Time step     : 0.00011583498841157342
Per MPI rank memory allocation (min/avg/max) = 3.899 | 3.899 | 3.899 Mbytes
   Step        Atoms         Time     
         0           1  0
       150           1  0.017375248261736011
       300           1  0.034750496523472021
       450           1  0.052125744785208039
       600           1  0.069500993046944043
       750           1  0.086876241308680061
       900           1  0.10425148957041608
      1050           1  0.12162673783215208
      1200           1  0.13900198609388809
      1350           1  0.15637723435562412
      1500           1  0.17375248261736012
      1505           1  0.17433165755941799
Loop time of 0.146062 on 1 procs for 1505 steps with 1 atoms

100.0% CPU use with 1 MPI tasks x no OpenMP threads

MPI task timing breakdown:
Section |  min time  |  avg time  |  max time  |%varavg| %total
---------------------------------------------------------------
Pair    | 4.1058e-05 | 4.1058e-05 | 4.1058e-05 |   0.0 |  0.03
Neigh   | 0.0092253  | 0.0092253  | 0.0092253  |   0.0 |  6.32
Comm    | 0.0002411  | 0.0002411  | 0.0002411  |   0.0 |  0.17
Output  | 4.0055e-05 | 4.0055e-05 | 4.0055e-05 |   0.0 |  0.03
Modify  | 0.13636    | 0.13636    | 0.13636    |   0.0 | 93.36
Other   |            | 0.0001574  |            |       |  0.11

Nlocal:              1 ave           1 max           1 min
Histogram: 1 0 0 0 0 0 0 0 0 0
Nghost:              0 ave           0 max           0 min
Histogram: 1 0 0 0 0 0 0 0 0 0
Neighs:              0 ave           0 max           0 min
Histogram: 1 0 0 0 0 0 0 0 0 0

Total # of neighbors = 0
Ave neighs/atom = 0
Neighbor list builds = 1505
Dangerous builds not checked
PASSIVE_CASE_COMPLETED
Total wall time: 0:00:00
