LAMMPS (22 Jul 2025 - Update 6)
units si
atom_style sphere
boundary p p p
newton off
processors 1 1 1
read_data particles.data
Reading data file ...
  orthogonal box = (8.0090315e-05 5.570136e-05 0.00011143342) to (0.00017844071 0.00015485135 0.00016720529)
  1 by 1 by 1 MPI processor grid
  reading atoms ...
  1 atoms
  reading velocities ...
  1 velocities
  read_data CPU = 0.000 seconds
comm_modify vel yes
pair_style zero 6e-6
pair_coeff * *
neighbor 1e-6 bin
neigh_modify every 1 delay 0 check no
fix passive all sonovue/passive/flow ../../fields/FROZEN_FLOW_FIELD_V0.h5 4 trajectory ../../provenance/closed_geometry_m.stl 5.9969754243196026e-07 0
timestep 5.7917494205786708e-05
thermo 301
thermo_style custom step atoms time
thermo_modify lost error norm no format float %.17g
run 0
Generated 0 of 0 mixed pair_coeff terms from geometric mixing rule
Neighbor list info ...
  update: every = 1 steps, delay = 0 steps, check = no
  max neighbors/atom: 2000, page size: 100000
  master list distance cutoff = 7e-06
  ghost atom cutoff = 7e-06
  binsize = 3.5e-06, bins = 29 29 16
  1 neighbor lists, perpetual/occasional/extra = 1 0 0
  (1) pair zero, perpetual
      attributes: half, newton off
      pair build: half/bin/atomonly/newtoff
      stencil: full/bin/3d
      bin: standard
Per MPI rank memory allocation (min/avg/max) = 3.899 | 3.899 | 3.899 Mbytes
   Step        Atoms         Time     
         0           1  0
Loop time of 8.52e-07 on 1 procs for 0 steps with 1 atoms

117.4% CPU use with 1 MPI tasks x no OpenMP threads

MPI task timing breakdown:
Section |  min time  |  avg time  |  max time  |%varavg| %total
---------------------------------------------------------------
Pair    | 0          | 0          | 0          |   0.0 |  0.00
Neigh   | 0          | 0          | 0          |   0.0 |  0.00
Comm    | 0          | 0          | 0          |   0.0 |  0.00
Output  | 0          | 0          | 0          |   0.0 |  0.00
Modify  | 0          | 0          | 0          |   0.0 |  0.00
Other   |            | 8.52e-07   |            |       |100.00

Nlocal:              1 ave           1 max           1 min
Histogram: 1 0 0 0 0 0 0 0 0 0
Nghost:              0 ave           0 max           0 min
Histogram: 1 0 0 0 0 0 0 0 0 0
Neighs:              0 ave           0 max           0 min
Histogram: 1 0 0 0 0 0 0 0 0 0

Total # of neighbors = 0
Ave neighs/atom = 0
Neighbor list builds = 0
Dangerous builds not checked
write_dump all custom initial.dump id diameter xu yu zu vx vy vz modify sort id format float %.17g
run 3010
Generated 0 of 0 mixed pair_coeff terms from geometric mixing rule
Per MPI rank memory allocation (min/avg/max) = 3.899 | 3.899 | 3.899 Mbytes
   Step        Atoms         Time     
         0           1  0
       301           1  0.017433165755941799
       602           1  0.034866331511883598
       903           1  0.052299497267825394
      1204           1  0.069732663023767197
      1505           1  0.087165828779708993
      1806           1  0.10459899453565079
      2107           1  0.1220321602915926
      2408           1  0.13946532604753439
      2709           1  0.1568984918034762
      3010           1  0.17433165755941799
Loop time of 0.287086 on 1 procs for 3010 steps with 1 atoms

100.0% CPU use with 1 MPI tasks x no OpenMP threads

MPI task timing breakdown:
Section |  min time  |  avg time  |  max time  |%varavg| %total
---------------------------------------------------------------
Pair    | 8.2308e-05 | 8.2308e-05 | 8.2308e-05 |   0.0 |  0.03
Neigh   | 0.02028    | 0.02028    | 0.02028    |   0.0 |  7.06
Comm    | 0.00047213 | 0.00047213 | 0.00047213 |   0.0 |  0.16
Output  | 4.4771e-05 | 4.4771e-05 | 4.4771e-05 |   0.0 |  0.02
Modify  | 0.26589    | 0.26589    | 0.26589    |   0.0 | 92.62
Other   |            | 0.0003121  |            |       |  0.11

Nlocal:              1 ave           1 max           1 min
Histogram: 1 0 0 0 0 0 0 0 0 0
Nghost:              0 ave           0 max           0 min
Histogram: 1 0 0 0 0 0 0 0 0 0
Neighs:              0 ave           0 max           0 min
Histogram: 1 0 0 0 0 0 0 0 0 0

Total # of neighbors = 0
Ave neighs/atom = 0
Neighbor list builds = 3010
Dangerous builds not checked
write_dump all custom final.dump id diameter xu yu zu vx vy vz modify sort id format float %.17g
print "PASSIVE_CASE_COMPLETED"
PASSIVE_CASE_COMPLETED
Total wall time: 0:00:00
