LAMMPS (2 Sep 2026)
Reading data file ...
  orthogonal box = (-6.4e-05 -6.4e-05 -6.4e-05) to (6.4e-05 6.4e-05 6.4e-05)
  1 by 1 by 1 MPI processor grid
  reading atoms ...
  1000 atoms
  reading velocities ...
  1000 velocities
  read_data CPU = 0.004 seconds
Generated 0 of 0 mixed pair_coeff terms from geometric mixing rule
Neighbor list info ...
  update: every = 1 steps, delay = 0 steps, check = no
  max neighbors/atom: 2000, page size: 100000
  master list distance cutoff = 7e-06
  ghost atom cutoff = 7e-06
  binsize = 3.5e-06, bins = 37 37 37
  1 neighbor lists, perpetual/occasional/extra = 1 0 0
  (1) pair zero, perpetual
      attributes: half, newton off
      pair build: half/bin/atomonly/newtoff
      stencil: full/bin/3d
      bin: standard
Setting up Verlet run ...
  Unit style    : si
  Current step  : 0
  Time step     : 4.7012332740341915e-05
Per MPI rank memory allocation (min/avg/max) = 4.096 | 4.096 | 4.096 Mbytes
   Step        Atoms         Time     
         0        1000  0
Loop time of 8.32e-07 on 1 procs for 0 steps with 1000 atoms

0.0% CPU use with 1 MPI tasks x no OpenMP threads

MPI task timing breakdown:
Section |  min time  |  avg time  |  max time  |%varavg| %total
---------------------------------------------------------------
Pair    | 0          | 0          | 0          |   0.0 |  0.00
Neigh   | 0          | 0          | 0          |   0.0 |  0.00
Comm    | 0          | 0          | 0          |   0.0 |  0.00
Output  | 0          | 0          | 0          |   0.0 |  0.00
Modify  | 0          | 0          | 0          |   0.0 |  0.00
Other   |            | 8.32e-07   |            |       |100.00

Nlocal:           1000 ave        1000 max        1000 min
Histogram: 1 0 0 0 0 0 0 0 0 0
Nghost:              0 ave           0 max           0 min
Histogram: 1 0 0 0 0 0 0 0 0 0
Neighs:              0 ave           0 max           0 min
Histogram: 1 0 0 0 0 0 0 0 0 0

Total # of neighbors = 0
Ave neighs/atom = 0
Neighbor list builds = 0
Dangerous builds not checked
Generated 0 of 0 mixed pair_coeff terms from geometric mixing rule
Setting up Verlet run ...
  Unit style    : si
  Current step  : 0
  Time step     : 4.7012332740341915e-05
Per MPI rank memory allocation (min/avg/max) = 4.096 | 4.096 | 4.096 Mbytes
   Step        Atoms         Time     
         0        1000  0
        80        1000  0.0037609866192273534
       160        1000  0.0075219732384547069
       240        1000  0.011282959857682059
       320        1000  0.015043946476909414
       400        1000  0.018804933096136765
       480        1000  0.022565919715364119
       560        1000  0.026326906334591473
       640        1000  0.030087892953818828
       720        1000  0.033848879573046178
       800        1000  0.037609866192273529
Loop time of 1.49019 on 1 procs for 800 steps with 1000 atoms

98.9% CPU use with 1 MPI tasks x no OpenMP threads

MPI task timing breakdown:
Section |  min time  |  avg time  |  max time  |%varavg| %total
---------------------------------------------------------------
Pair    | 4.6171e-05 | 4.6171e-05 | 4.6171e-05 |   0.0 |  0.00
Neigh   | 0.10293    | 0.10293    | 0.10293    |   0.0 |  6.91
Comm    | 0.0045852  | 0.0045852  | 0.0045852  |   0.0 |  0.31
Output  | 5.2309e-05 | 5.2309e-05 | 5.2309e-05 |   0.0 |  0.00
Modify  | 1.38       | 1.38       | 1.38       |   0.0 | 92.61
Other   |            | 0.00257    |            |       |  0.17

Nlocal:           1000 ave        1000 max        1000 min
Histogram: 1 0 0 0 0 0 0 0 0 0
Nghost:            200 ave         200 max         200 min
Histogram: 1 0 0 0 0 0 0 0 0 0
Neighs:              0 ave           0 max           0 min
Histogram: 1 0 0 0 0 0 0 0 0 0

Total # of neighbors = 0
Ave neighs/atom = 0
Neighbor list builds = 800
Dangerous builds not checked
PASSIVE_CASE_COMPLETED
Total wall time: 0:00:01
