LAMMPS (2 Sep 2026)
KOKKOS mode with Kokkos version 5.2.1 is enabled
  using double precision
  using view layout = legacy
  will use up to 1 GPU(s) per node
Reading data file ...
  orthogonal box = (-4e-05 -4e-05 -4e-05) to (4e-05 4e-05 4e-05)
  1 by 1 by 1 MPI processor grid
  reading atoms ...
  1000 atoms
  reading velocities ...
  1000 velocities
  read_data CPU = 0.012 seconds

CITE-CITE-CITE-CITE-CITE-CITE-CITE-CITE-CITE-CITE-CITE-CITE-CITE

Your simulation uses code contributions which should be cited:
- KOKKOS package: https://doi.org/10.1145/3731599.3767498
The log file lists these citations in BibTeX format.

CITE-CITE-CITE-CITE-CITE-CITE-CITE-CITE-CITE-CITE-CITE-CITE-CITE

Generated 0 of 0 mixed pair_coeff terms from geometric mixing rule
Neighbor list info ...
  update: every = 1 steps, delay = 0 steps, check = no
  max neighbors/atom: 2000, page size: 100000
  master list distance cutoff = 7e-06
  ghost atom cutoff = 7e-06
  binsize = 7e-06, bins = 12 12 12
  1 neighbor lists, perpetual/occasional/extra = 1 0 0
  (1) pair zero, perpetual
      attributes: half, newton off
      pair build: half/bin/atomonly/newtoff
      stencil: full/bin/3d
      bin: standard
Setting up Verlet run ...
  Unit style    : si
  Current step  : 0
  Time step     : 6.249999999999999e-11
Per MPI rank memory allocation (min/avg/max) = 4.135 | 4.135 | 4.135 Mbytes
   Step        Atoms         Time          KinEng    
         0        1000  0 0
Loop time of 0.000313315 on 1 procs for 0 steps with 1000 atoms

25.9% CPU use with 1 MPI tasks x 1 OpenMP threads

MPI task timing breakdown:
Section |  min time  |  avg time  |  max time  |%varavg| %total
---------------------------------------------------------------
Pair    | 0          | 0          | 0          |   0.0 |  0.00
Neigh   | 0          | 0          | 0          |   0.0 |  0.00
Comm    | 0          | 0          | 0          |   0.0 |  0.00
Output  | 0          | 0          | 0          |   0.0 |  0.00
Modify  | 0          | 0          | 0          |   0.0 |  0.00
Other   |            | 0.0003133  |            |       |100.00

Nlocal:           1000 ave        1000 max        1000 min
Histogram: 1 0 0 0 0 0 0 0 0 0
Nghost:            728 ave         728 max         728 min
Histogram: 1 0 0 0 0 0 0 0 0 0
Neighs:              0 ave           0 max           0 min
Histogram: 1 0 0 0 0 0 0 0 0 0

Total # of neighbors = 0
Ave neighs/atom = 0
Neighbor list builds = 0
Dangerous builds not checked
Generated 0 of 0 mixed pair_coeff terms from geometric mixing rule
Setting up Verlet run ...
  Unit style    : si
  Current step  : 0
  Time step     : 6.249999999999999e-11
Per MPI rank memory allocation (min/avg/max) = 4.135 | 4.135 | 4.135 Mbytes
   Step        Atoms         Time          KinEng    
         0        1000  0 0
       100        1000  6.2499999999999989e-09 1.9215579265142186e-21
       200        1000  1.2499999999999998e-08 7.3847918323083029e-21
       300        1000  1.8749999999999996e-08 1.5977891113332782e-20
       400        1000  2.4999999999999996e-08 2.733708057326968e-20
       500        1000  3.1249999999999999e-08 4.1140305848856084e-20
       600        1000  3.7499999999999992e-08 5.7101855488047068e-20
       700        1000  4.3749999999999991e-08 7.4967766215308821e-20
       800        1000  4.9999999999999991e-08 9.4511885054042986e-20
       900        1000  5.6249999999999991e-08 1.155324840323382e-19
      1000        1000  6.2499999999999997e-08 1.3784934116729095e-19
Loop time of 2.54212 on 1 procs for 1000 steps with 1000 atoms

103.2% CPU use with 1 MPI tasks x 1 OpenMP threads

MPI task timing breakdown:
Section |  min time  |  avg time  |  max time  |%varavg| %total
---------------------------------------------------------------
Pair    | 0.057964   | 0.057964   | 0.057964   |   0.0 |  2.28
Neigh   | 0.33335    | 0.33335    | 0.33335    |   0.0 | 13.11
Comm    | 0.24767    | 0.24767    | 0.24767    |   0.0 |  9.74
Output  | 0.0016804  | 0.0016804  | 0.0016804  |   0.0 |  0.07
Modify  | 1.8586     | 1.8586     | 1.8586     |   0.0 | 73.11
Other   |            | 0.04289    |            |       |  1.69

Nlocal:           1000 ave        1000 max        1000 min
Histogram: 1 0 0 0 0 0 0 0 0 0
Nghost:            728 ave         728 max         728 min
Histogram: 1 0 0 0 0 0 0 0 0 0
Neighs:              0 ave           0 max           0 min
Histogram: 1 0 0 0 0 0 0 0 0 0

Total # of neighbors = 0
Ave neighs/atom = 0
Neighbor list builds = 1000
Dangerous builds not checked
COUPLING_CASE_COMPLETED
Total wall time: 0:00:02
terminate called after throwing an instance of 'std::runtime_error'
  what():  cudaStreamSynchronize(stream) error( cudaErrorCudartUnloading): driver shutting down /workspace/lammps_migration/new_20260916_091244/upstream/lammps/lib/kokkos/core/src/Cuda/Kokkos_Cuda_Instance.cpp:154
[f7c62a262077:105903] *** Process received signal ***
[f7c62a262077:105903] Signal: Aborted (6)
[f7c62a262077:105903] Signal code:  (-6)
[f7c62a262077:105903] [ 0] /usr/lib/x86_64-linux-gnu/libopen-pal.so.40(+0x7021b)[0x7f00d14fb21b]
[f7c62a262077:105903] [ 1] /opt/nvidia/nsight-compute/2026.1.1/host/target-linux-x64/libToolsInjection64.so(+0x4bf7b6)[0x7f00cf77d7b6]
[f7c62a262077:105903] [ 2] /usr/lib/x86_64-linux-gnu/libc.so.6(+0x45330)[0x7f00d1999330]
[f7c62a262077:105903] [ 3] /usr/lib/x86_64-linux-gnu/libc.so.6(+0x9ec0c)[0x7f00d19f2c0c]
[f7c62a262077:105903] [ 4] /usr/lib/x86_64-linux-gnu/libc.so.6(gsignal+0x1e)[0x7f00d199927e]
[f7c62a262077:105903] [ 5] /usr/lib/x86_64-linux-gnu/libc.so.6(abort+0xdf)[0x7f00d197c8ff]
[f7c62a262077:105903] [ 6] /usr/lib/x86_64-linux-gnu/libstdc++.so.6(+0xa5ff5)[0x7f00d1cf5ff5]
[f7c62a262077:105903] [ 7] /usr/lib/x86_64-linux-gnu/libstdc++.so.6(+0xbb0da)[0x7f00d1d0b0da]
[f7c62a262077:105903] [ 8] /usr/lib/x86_64-linux-gnu/libstdc++.so.6(__cxa_call_terminate+0x33)[0x7f00d1cf58e6]
[f7c62a262077:105903] [ 9] /usr/lib/x86_64-linux-gnu/libstdc++.so.6(__gxx_personality_v0+0x31a)[0x7f00d1d0a8ba]
[f7c62a262077:105903] [10] /usr/lib/x86_64-linux-gnu/libgcc_s.so.1(+0x22b06)[0x7f00d232ab06]
[f7c62a262077:105903] [11] /usr/lib/x86_64-linux-gnu/libgcc_s.so.1(_Unwind_Resume+0x12d)[0x7f00d232b5cd]
[f7c62a262077:105903] [12] /workspace/lammps_migration/new_20260916_091244/coupling/build/coupled_lmp_gpu(+0x26b4f8)[0x55562a9f74f8]
[f7c62a262077:105903] [13] /workspace/lammps_migration/new_20260916_091244/coupling/build/coupled_lmp_gpu(+0x1e43e37)[0x55562c5cfe37]
[f7c62a262077:105903] [14] /workspace/lammps_migration/new_20260916_091244/coupling/build/coupled_lmp_gpu(+0x1e44e11)[0x55562c5d0e11]
[f7c62a262077:105903] [15] /workspace/lammps_migration/new_20260916_091244/coupling/build/coupled_lmp_gpu(+0x1e45209)[0x55562c5d1209]
[f7c62a262077:105903] [16] /workspace/lammps_migration/new_20260916_091244/coupling/build/coupled_lmp_gpu(+0x1e472d4)[0x55562c5d32d4]
[f7c62a262077:105903] [17] /usr/lib/x86_64-linux-gnu/libc.so.6(+0x47a76)[0x7f00d199ba76]
[f7c62a262077:105903] [18] /usr/lib/x86_64-linux-gnu/libc.so.6(+0x47bbe)[0x7f00d199bbbe]
[f7c62a262077:105903] [19] /usr/lib/x86_64-linux-gnu/libc.so.6(+0x2a1d1)[0x7f00d197e1d1]
[f7c62a262077:105903] [20] /usr/lib/x86_64-linux-gnu/libc.so.6(__libc_start_main+0x8b)[0x7f00d197e28b]
[f7c62a262077:105903] [21] /workspace/lammps_migration/new_20260916_091244/coupling/build/coupled_lmp_gpu(+0x3203c5)[0x55562aaac3c5]
[f7c62a262077:105903] *** End of error message ***
--------------------------------------------------------------------------
Primary job  terminated normally, but 1 process returned
a non-zero exit code. Per user-direction, the job has been aborted.
--------------------------------------------------------------------------
--------------------------------------------------------------------------
mpirun noticed that process rank 0 with PID 0 on node f7c62a262077 exited on signal 6 (Aborted).
--------------------------------------------------------------------------
Collecting data...
Generating '/tmp/nsys-report-2a22.qdstrm'
[1/1] [0%                          ] kokkos_host_fix_trace.nsys-rep[1/1] [0%                          ] kokkos_host_fix_trace.nsys-rep[1/1] [0%                          ] kokkos_host_fix_trace.nsys-rep[1/1] [5%                          ] kokkos_host_fix_trace.nsys-rep[1/1] [7%                          ] kokkos_host_fix_trace.nsys-rep[1/1] [10%                         ] kokkos_host_fix_trace.nsys-rep[1/1] [12%                         ] kokkos_host_fix_trace.nsys-rep[1/1] [=15%                        ] kokkos_host_fix_trace.nsys-rep[1/1] [=17%                        ] kokkos_host_fix_trace.nsys-rep[1/1] [==20%                       ] kokkos_host_fix_trace.nsys-rep[1/1] [===22%                      ] kokkos_host_fix_trace.nsys-rep[1/1] [====25%                     ] kokkos_host_fix_trace.nsys-rep[1/1] [====28%                     ] kokkos_host_fix_trace.nsys-rep[1/1] [=====30%                    ] kokkos_host_fix_trace.nsys-rep[1/1] [======33%                   ] kokkos_host_fix_trace.nsys-rep[1/1] [======35%                   ] kokkos_host_fix_trace.nsys-rep[1/1] [=======38%                  ] kokkos_host_fix_trace.nsys-rep[1/1] [========40%                 ] kokkos_host_fix_trace.nsys-rep[1/1] [=========43%                ] kokkos_host_fix_trace.nsys-rep[1/1] [=========45%                ] kokkos_host_fix_trace.nsys-rep[1/1] [==========48%               ] kokkos_host_fix_trace.nsys-rep[1/1] [===========50%              ] kokkos_host_fix_trace.nsys-rep[1/1] [========================100%] kokkos_host_fix_trace.nsys-rep[1/1] [========================100%] kokkos_host_fix_trace.nsys-rep
Generated:
	/workspace/microbubble_lammps/results/lammps2026_bubble_interaction_20260916_091244/migration/coupling/cases/kokkos_compatibility/kokkos_host_fix_trace.nsys-rep
