LAMMPS (22 Jul 2025 - Update 6)
KOKKOS mode with Kokkos version 4.6.2 is enabled
  will use up to 1 GPU(s) per node
Reading data file ...
  orthogonal box = (-6.4e-05 -6.4e-05 -6.4e-05) to (6.4e-05 6.4e-05 6.4e-05)
  1 by 1 by 1 MPI processor grid
  reading atoms ...
  1000 atoms
  reading velocities ...
  1000 velocities
  read_data CPU = 0.010 seconds
Generated 0 of 0 mixed pair_coeff terms from geometric mixing rule
Neighbor list info ...
  update: every = 1 steps, delay = 0 steps, check = no
  max neighbors/atom: 2000, page size: 100000
  master list distance cutoff = 7e-06
  ghost atom cutoff = 7e-06
  binsize = 7e-06, bins = 19 19 19
  1 neighbor lists, perpetual/occasional/extra = 1 0 0
  (1) pair zero, perpetual
      attributes: half, newton off
      pair build: half/bin/atomonly/newtoff
      stencil: full/bin/3d
      bin: standard
Setting up Verlet run ...
  Unit style    : si
  Current step  : 0
  Time step     : 4.7012332740341915e-05
Per MPI rank memory allocation (min/avg/max) = 4.158 | 4.158 | 4.158 Mbytes
   Step        Atoms         Time     
         0        1000  0
Loop time of 0.000412268 on 1 procs for 0 steps with 1000 atoms

21.1% CPU use with 1 MPI tasks x 1 OpenMP threads

MPI task timing breakdown:
Section |  min time  |  avg time  |  max time  |%varavg| %total
---------------------------------------------------------------
Pair    | 0          | 0          | 0          |   0.0 |  0.00
Neigh   | 0          | 0          | 0          |   0.0 |  0.00
Comm    | 0          | 0          | 0          |   0.0 |  0.00
Output  | 0          | 0          | 0          |   0.0 |  0.00
Modify  | 0          | 0          | 0          |   0.0 |  0.00
Other   |            | 0.0004123  |            |       |100.00

Nlocal:           1000 ave        1000 max        1000 min
Histogram: 1 0 0 0 0 0 0 0 0 0
Nghost:              0 ave           0 max           0 min
Histogram: 1 0 0 0 0 0 0 0 0 0
Neighs:              0 ave           0 max           0 min
Histogram: 1 0 0 0 0 0 0 0 0 0

Total # of neighbors = 0
Ave neighs/atom = 0
Neighbor list builds = 0
Dangerous builds not checked
Generated 0 of 0 mixed pair_coeff terms from geometric mixing rule
Setting up Verlet run ...
  Unit style    : si
  Current step  : 0
  Time step     : 4.7012332740341915e-05
Per MPI rank memory allocation (min/avg/max) = 4.158 | 4.158 | 4.158 Mbytes
   Step        Atoms         Time     
         0        1000  0
        20        1000  0.00094024665480683836
        40        1000  0.0018804933096136767
        60        1000  0.0028207399644205149
        80        1000  0.0037609866192273534
       100        1000  0.0047012332740341911
       120        1000  0.0056414799288410297
       140        1000  0.0065817265836478683
       160        1000  0.0075219732384547069
       180        1000  0.0084622198932615446
       200        1000  0.0094024665480683823
Loop time of 0.700202 on 1 procs for 200 steps with 1000 atoms

98.5% CPU use with 1 MPI tasks x 1 OpenMP threads

MPI task timing breakdown:
Section |  min time  |  avg time  |  max time  |%varavg| %total
---------------------------------------------------------------
Pair    | 0.020746   | 0.020746   | 0.020746   |   0.0 |  2.96
Neigh   | 0.079149   | 0.079149   | 0.079149   |   0.0 | 11.30
Comm    | 0.072891   | 0.072891   | 0.072891   |   0.0 | 10.41
Output  | 6.4882e-05 | 6.4882e-05 | 6.4882e-05 |   0.0 |  0.01
Modify  | 0.49473    | 0.49473    | 0.49473    |   0.0 | 70.66
Other   |            | 0.03262    |            |       |  4.66

Nlocal:           1000 ave        1000 max        1000 min
Histogram: 1 0 0 0 0 0 0 0 0 0
Nghost:              0 ave           0 max           0 min
Histogram: 1 0 0 0 0 0 0 0 0 0
Neighs:              0 ave           0 max           0 min
Histogram: 1 0 0 0 0 0 0 0 0 0

Total # of neighbors = 0
Ave neighs/atom = 0
Neighbor list builds = 200
Dangerous builds not checked
PASSIVE_CASE_COMPLETED
Total wall time: 0:00:00
Kokkos::Cuda ERROR: Failed to call Kokkos::Cuda::finalize()
