LAMMPS (22 Jul 2025 - Update 6)
KOKKOS mode with Kokkos version 4.6.2 is enabled
  will use up to 1 GPU(s) per node
package kokkos
package kokkos neigh half newton off gpu/aware off
units si
dimension 3
boundary p p p
atom_style sphere
newton off
processors 1 1 1
read_data particles.data
Reading data file ...
  orthogonal box = (0 0 0) to (0.0004 0.0004 0.00016)
  1 by 1 by 1 MPI processor grid
  reading atoms ...
  50000 atoms
  reading velocities ...
  50000 velocities
  read_data CPU = 0.195 seconds
comm_modify vel yes
neighbor 1e-6 bin
neigh_modify every 1 delay 0 check no
pair_style gran/hooke/history 0.001 0 0 0 0 0
pair_coeff * *
fix integrate all nve/sphere
timestep 1e-08
thermo 100
thermo_style custom step atoms time ke
thermo_modify lost error norm no format float %.17g
run 0
Generated 0 of 0 mixed pair_coeff terms from geometric mixing rule
Neighbor list info ...
  update: every = 1 steps, delay = 0 steps, check = no
  max neighbors/atom: 2000, page size: 100000
  master list distance cutoff = 6.249119e-06
  ghost atom cutoff = 6.249119e-06
  binsize = 6.249119e-06, bins = 65 65 26
  1 neighbor lists, perpetual/occasional/extra = 1 0 0
  (1) pair gran/hooke/history/kk, perpetual
      attributes: half, newton off, size, history, kokkos_device
      pair build: half/bin/newtoff/size/kk/device
      stencil: full/bin/3d
      bin: kk/device
Per MPI rank memory allocation (min/avg/max) = 56.49 | 56.49 | 56.49 Mbytes
   Step        Atoms         Time          KinEng    
         0       50000  0 0
Loop time of 0.000107611 on 1 procs for 0 steps with 50000 atoms

44.6% CPU use with 1 MPI tasks x 1 OpenMP threads

MPI task timing breakdown:
Section |  min time  |  avg time  |  max time  |%varavg| %total
---------------------------------------------------------------
Pair    | 0          | 0          | 0          |   0.0 |  0.00
Neigh   | 0          | 0          | 0          |   0.0 |  0.00
Comm    | 0          | 0          | 0          |   0.0 |  0.00
Output  | 0          | 0          | 0          |   0.0 |  0.00
Modify  | 0          | 0          | 0          |   0.0 |  0.00
Other   |            | 0.0001076  |            |       |100.00

Nlocal:          50000 ave       50000 max       50000 min
Histogram: 1 0 0 0 0 0 0 0 0 0
Nghost:           9488 ave        9488 max        9488 min
Histogram: 1 0 0 0 0 0 0 0 0 0
Neighs:              0 ave           0 max           0 min
Histogram: 1 0 0 0 0 0 0 0 0 0

Total # of neighbors = 0
Ave neighs/atom = 0
Neighbor list builds = 0
Dangerous builds not checked
write_dump all custom initial.dump id type diameter radius mass x y z xu yu zu vx vy vz omegax omegay omegaz fx fy fz proc ix iy iz modify sort id format float %.17g
run 1000
Generated 0 of 0 mixed pair_coeff terms from geometric mixing rule
Per MPI rank memory allocation (min/avg/max) = 56.49 | 56.49 | 56.49 Mbytes
   Step        Atoms         Time          KinEng    
         0       50000  0 0
       100       50000  9.9999999999999995e-07 0
       200       50000  1.9999999999999999e-06 0
       300       50000  3.0000000000000001e-06 0
       400       50000  3.9999999999999998e-06 0
       500       50000  5.0000000000000004e-06 0
       600       50000  6.0000000000000002e-06 0
       700       50000  6.9999999999999999e-06 0
       800       50000  7.9999999999999996e-06 0
       900       50000  9.0000000000000002e-06 0
      1000       50000  1.0000000000000001e-05 0
Loop time of 0.63459 on 1 procs for 1000 steps with 50000 atoms

107.5% CPU use with 1 MPI tasks x 1 OpenMP threads

MPI task timing breakdown:
Section |  min time  |  avg time  |  max time  |%varavg| %total
---------------------------------------------------------------
Pair    | 0.022293   | 0.022293   | 0.022293   |   0.0 |  3.51
Neigh   | 0.27834    | 0.27834    | 0.27834    |   0.0 | 43.86
Comm    | 0.21194    | 0.21194    | 0.21194    |   0.0 | 33.40
Output  | 0.00041497 | 0.00041497 | 0.00041497 |   0.0 |  0.07
Modify  | 0.098541   | 0.098541   | 0.098541   |   0.0 | 15.53
Other   |            | 0.02306    |            |       |  3.63

Nlocal:          50000 ave       50000 max       50000 min
Histogram: 1 0 0 0 0 0 0 0 0 0
Nghost:           9488 ave        9488 max        9488 min
Histogram: 1 0 0 0 0 0 0 0 0 0
Neighs:              0 ave           0 max           0 min
Histogram: 1 0 0 0 0 0 0 0 0 0

Total # of neighbors = 0
Ave neighs/atom = 0
Neighbor list builds = 1000
Dangerous builds not checked
write_dump all custom final.dump id type diameter radius mass x y z xu yu zu vx vy vz omegax omegay omegaz fx fy fz proc ix iy iz modify sort id format float %.17g
print "ENGINE_CASE_COMPLETED"
ENGINE_CASE_COMPLETED
Total wall time: 0:00:01
