Overdamped sphere storage; density placeholder never enters equations

8 atoms
1 atom types

-5.0000000000000002e-05 5.0000000000000002e-05 xlo xhi
-3.0000000000000001e-05 3.0000000000000001e-05 ylo yhi
-1.0000000000000001e-05 5.0000000000000002e-05 zlo zhi

Atoms # sphere

1 1 1.3067793880837359e-06 1 -2.2500000000000001e-05 -1.0500000000000001e-05 7.1872866344605475e-07
2 1 1.3067793880837359e-06 1 -1.95e-05 -1.0500000000000001e-05 1.5027962962962962e-05
3 1 1.3067793880837359e-06 1 -1.6500000000000001e-05 -1.0500000000000001e-05 7.1872866344605475e-07
4 1 1.3067793880837359e-06 1 -1.3499999999999999e-05 -1.0500000000000001e-05 1.5027962962962962e-05
5 1 1.3067793880837359e-06 1 -1.0500000000000001e-05 -1.0500000000000001e-05 7.1872866344605475e-07
6 1 1.3067793880837359e-06 1 -7.5000000000000002e-06 -1.0500000000000001e-05 1.5027962962962962e-05
7 1 1.3067793880837359e-06 1 -4.5000000000000001e-06 -1.0500000000000001e-05 7.1872866344605475e-07
8 1 1.3067793880837359e-06 1 -1.5e-06 -1.0500000000000001e-05 1.5027962962962962e-05

Velocities

1 0 0 0 0 0 0
2 0 0 0 0 0 0
3 0 0 0 0 0 0
4 0 0 0 0 0 0
5 0 0 0 0 0 0
6 0 0 0 0 0 0
7 0 0 0 0 0 0
8 0 0 0 0 0 0
