ITEM: TIMESTEP
7590
ITEM: NUMBER OF ATOMS
1
ITEM: BOX BOUNDS pp pp pp
-4.0000000000000003e-05 4.0000000000000003e-05
-4.0000000000000003e-05 4.0000000000000003e-05
-4.0000000000000003e-05 4.0000000000000003e-05
ITEM: ATOMS id diameter mass xu yu zu vx vy vz fx fy fz
1 1.3067617516554351e-06 1.1683900919191331e-15 3.8017584622644573e-10 -7.6035169245288494e-11 1.1405275386793297e-10 0.00099327558285983641 -0.00019865511657196684 0.00029798267485794955 8.28448031709489e-14 -1.6568960634194653e-14 2.4853440951300156e-14
