LAMMPS (2 Sep 2026)
units si
atom_style sphere
boundary p p p
newton off
processors 1 1 1
read_data particles.data
Reading data file ...
  orthogonal box = (-4e-05 -4e-05 -4e-05) to (4e-05 4e-05 4e-05)
  1 by 1 by 1 MPI processor grid
  reading atoms ...
  1 atoms
  reading velocities ...
  1 velocities
  read_data CPU = 0.001 seconds
comm_modify vel yes
pair_style zero 6e-6
pair_coeff * *
neighbor 1e-6 bin
neigh_modify every 1 delay 0 check no
fix integrator all nve/sphere
fix coupling all frozen/flow/drag ../../fields/UNIFORM_FIELD.h5 0.001 1 trajectory -1 0 0 0 0
timestep 6.2499999999999991e-11
thermo 759
thermo_style custom step atoms time ke
thermo_modify lost error norm no format float %.17g
run 0
Generated 0 of 0 mixed pair_coeff terms from geometric mixing rule
Neighbor list info ...
  update: every = 1 steps, delay = 0 steps, check = no
  max neighbors/atom: 2000, page size: 100000
  master list distance cutoff = 7e-06
  ghost atom cutoff = 7e-06
  binsize = 3.5e-06, bins = 23 23 23
  1 neighbor lists, perpetual/occasional/extra = 1 0 0
  (1) pair zero, perpetual
      attributes: half, newton off
      pair build: half/bin/atomonly/newtoff
      stencil: full/bin/3d
      bin: standard
Per MPI rank memory allocation (min/avg/max) = 3.89 | 3.89 | 3.89 Mbytes
   Step        Atoms         Time          KinEng    
         0           1  0 0
Loop time of 1.082e-06 on 1 procs for 0 steps with 1 atoms

0.0% CPU use with 1 MPI tasks x no OpenMP threads

MPI task timing breakdown:
Section |  min time  |  avg time  |  max time  |%varavg| %total
---------------------------------------------------------------
Pair    | 0          | 0          | 0          |   0.0 |  0.00
Neigh   | 0          | 0          | 0          |   0.0 |  0.00
Comm    | 0          | 0          | 0          |   0.0 |  0.00
Output  | 0          | 0          | 0          |   0.0 |  0.00
Modify  | 0          | 0          | 0          |   0.0 |  0.00
Other   |            | 1.082e-06  |            |       |100.00

Nlocal:              1 ave           1 max           1 min
Histogram: 1 0 0 0 0 0 0 0 0 0
Nghost:              0 ave           0 max           0 min
Histogram: 1 0 0 0 0 0 0 0 0 0
Neighs:              0 ave           0 max           0 min
Histogram: 1 0 0 0 0 0 0 0 0 0

Total # of neighbors = 0
Ave neighs/atom = 0
Neighbor list builds = 0
Dangerous builds not checked
write_dump all custom initial.dump id diameter mass xu yu zu vx vy vz fx fy fz modify sort id format float %.17g
run 7590
Generated 0 of 0 mixed pair_coeff terms from geometric mixing rule
Per MPI rank memory allocation (min/avg/max) = 3.89 | 3.89 | 3.89 Mbytes
   Step        Atoms         Time          KinEng    
         0           1  0 0
       759           1  4.7437499999999991e-08 0
      1518           1  9.4874999999999981e-08 0
      2277           1  1.4231249999999997e-07 0
      3036           1  1.8974999999999996e-07 0
      3795           1  2.3718749999999995e-07 0
      4554           1  2.8462499999999994e-07 0
      5313           1  3.3206249999999993e-07 0
      6072           1  3.7949999999999992e-07 0
      6831           1  4.2693749999999991e-07 0
      7590           1  4.7437499999999991e-07 0
Loop time of 0.0797096 on 1 procs for 7590 steps with 1 atoms

100.0% CPU use with 1 MPI tasks x no OpenMP threads

MPI task timing breakdown:
Section |  min time  |  avg time  |  max time  |%varavg| %total
---------------------------------------------------------------
Pair    | 0.00020014 | 0.00020014 | 0.00020014 |   0.0 |  0.25
Neigh   | 0.044072   | 0.044072   | 0.044072   |   0.0 | 55.29
Comm    | 0.0012214  | 0.0012214  | 0.0012214  |   0.0 |  1.53
Output  | 5.0193e-05 | 5.0193e-05 | 5.0193e-05 |   0.0 |  0.06
Modify  | 0.03344    | 0.03344    | 0.03344    |   0.0 | 41.95
Other   |            | 0.0007265  |            |       |  0.91

Nlocal:              1 ave           1 max           1 min
Histogram: 1 0 0 0 0 0 0 0 0 0
Nghost:              0 ave           0 max           0 min
Histogram: 1 0 0 0 0 0 0 0 0 0
Neighs:              0 ave           0 max           0 min
Histogram: 1 0 0 0 0 0 0 0 0 0

Total # of neighbors = 0
Ave neighs/atom = 0
Neighbor list builds = 7590
Dangerous builds not checked
write_dump all custom final.dump id diameter mass xu yu zu vx vy vz fx fy fz modify sort id format float %.17g
print "COUPLING_CASE_COMPLETED"
COUPLING_CASE_COMPLETED
Total wall time: 0:00:00
