LAMMPS (22 Jul 2025 - Update 6)
units si
atom_style sphere
boundary f f f
newton off
atom_modify map array
region box block 6.0090314919576299e-05 0.00019864061105922843 3.5701359566515548e-05 0.00017505125242941032 9.1433415919523937e-05 0.00018740518654650689 units box
create_box 1 box
Created orthogonal box = (6.0090315e-05 3.570136e-05 9.1433416e-05) to (0.00019864061 0.00017505125 0.00018740519)
  2 by 2 by 1 MPI processor grid
pair_style zero 8e-6 full
pair_coeff * *
neighbor 4e-7 bin
neigh_modify every 1 delay 0 check no
comm_modify vel yes
fix rigid all sonovue/rigid/storage
thermo 1000000
run 0 post no
Generated 0 of 0 mixed pair_coeff terms from geometric mixing rule
Neighbor list info ...
  update: every = 1 steps, delay = 0 steps, check = no
  max neighbors/atom: 2000, page size: 100000
  master list distance cutoff = 8.4e-06
  ghost atom cutoff = 8.4e-06
  binsize = 4.2e-06, bins = 33 34 23
  1 neighbor lists, perpetual/occasional/extra = 1 0 0
  (1) pair zero, perpetual
      attributes: full, newton off
      pair build: full/bin/atomonly
      stencil: full/bin/3d
      bin: standard
Per MPI rank memory allocation (min/avg/max) = 0.4777 | 0.4777 | 0.4777 Mbytes
   Step          Temp          E_pair         E_mol          TotEng         Press     
         0   0              0              0              0              0            
Loop time of 1.92825e-06 on 4 procs for 0 steps with 0 atoms

timestep 0.0001
run 1 pre no post no
   Step          Temp          E_pair         E_mol          TotEng         Press     
         0   0              0              0              0              0            
         1   0              0              0              0              0            
Loop time of 1.98725e-05 on 4 procs for 1 steps with 0 atoms

timestep 0.0001
run 1 pre no post no
   Step          Temp          E_pair         E_mol          TotEng         Press     
         1   0              0              0              0              0            
         2   0              0              0              0              0            
Loop time of 1.7743e-05 on 4 procs for 1 steps with 0 atoms

timestep 0.0001
run 1 pre no post no
   Step          Temp          E_pair         E_mol          TotEng         Press     
         2   0              0              0              0              0            
         3   0              0              0              0              0            
Loop time of 1.68315e-05 on 4 procs for 1 steps with 0 atoms

timestep 0.0001
run 1 pre no post no
   Step          Temp          E_pair         E_mol          TotEng         Press     
         3   0              0              0              0              0            
         4   0              0              0              0              0            
Loop time of 1.65235e-05 on 4 procs for 1 steps with 0 atoms

run 0 post no
Generated 0 of 0 mixed pair_coeff terms from geometric mixing rule
Per MPI rank memory allocation (min/avg/max) = 0.4777 | 1.229 | 3.481 Mbytes
   Step          Temp          E_pair         E_mol          TotEng         Press     
         4   0              0              0              0              0            
Loop time of 1.77825e-06 on 4 procs for 0 steps with 1 atoms

group workflow_remove id 1
1 atoms in group workflow_remove
delete_atoms group workflow_remove compress no
Deleted 1 atoms, new total = 0
group workflow_remove delete
run 0 post no
Generated 0 of 0 mixed pair_coeff terms from geometric mixing rule
Per MPI rank memory allocation (min/avg/max) = 0.4777 | 1.229 | 3.481 Mbytes
   Step          Temp          E_pair         E_mol          TotEng         Press     
         4   0              0              0              0              0            
Loop time of 1.683e-06 on 4 procs for 0 steps with 0 atoms

run 0 post no
Generated 0 of 0 mixed pair_coeff terms from geometric mixing rule
Per MPI rank memory allocation (min/avg/max) = 0.4777 | 1.229 | 3.481 Mbytes
   Step          Temp          E_pair         E_mol          TotEng         Press     
         4   0              0              0              0              0            
Loop time of 9.147e-06 on 4 procs for 0 steps with 1 atoms

timestep 7.6966729916586355e-05
run 1 pre no post no
   Step          Temp          E_pair         E_mol          TotEng         Press     
         4   0              0              0              0              0            
         5   0              0              0              0              0            
Loop time of 1.8905e-05 on 4 procs for 1 steps with 1 atoms

timestep 7.7058557035745837e-05
run 1 pre no post no
   Step          Temp          E_pair         E_mol          TotEng         Press     
         5   0              0              0              0              0            
         6   0              0              0              0              0            
Loop time of 1.7953e-05 on 4 procs for 1 steps with 1 atoms

timestep 7.7150609526257746e-05
run 1 pre no post no
   Step          Temp          E_pair         E_mol          TotEng         Press     
         6   0              0              0              0              0            
         7   0              0              0              0              0            
Loop time of 1.752e-05 on 4 procs for 1 steps with 1 atoms

timestep 7.7242888219775457e-05
run 1 pre no post no
   Step          Temp          E_pair         E_mol          TotEng         Press     
         7   0              0              0              0              0            
         8   0              0              0              0              0            
Loop time of 1.78132e-05 on 4 procs for 1 steps with 1 atoms

timestep 7.7336802308006808e-05
run 1 pre no post no
   Step          Temp          E_pair         E_mol          TotEng         Press     
         8   0              0              0              0              0            
         9   0              0              0              0              0            
Loop time of 1.72798e-05 on 4 procs for 1 steps with 1 atoms

timestep 7.7431940264035371e-05
run 1 pre no post no
   Step          Temp          E_pair         E_mol          TotEng         Press     
         9   0              0              0              0              0            
        10   0              0              0              0              0            
Loop time of 2.0989e-05 on 4 procs for 1 steps with 1 atoms

timestep 7.7527314984151654e-05
run 1 pre no post no
   Step          Temp          E_pair         E_mol          TotEng         Press     
        10   0              0              0              0              0            
        11   0              0              0              0              0            
Loop time of 1.69665e-05 on 4 procs for 1 steps with 1 atoms

timestep 7.7622927352624958e-05
run 1 pre no post no
   Step          Temp          E_pair         E_mol          TotEng         Press     
        11   0              0              0              0              0            
        12   0              0              0              0              0            
Loop time of 1.5291e-05 on 4 procs for 1 steps with 1 atoms

timestep 7.7719505905274737e-05
run 1 pre no post no
   Step          Temp          E_pair         E_mol          TotEng         Press     
        12   0              0              0              0              0            
        13   0              0              0              0              0            
Loop time of 1.84345e-05 on 4 procs for 1 steps with 1 atoms

timestep 7.7816842763777738e-05
run 1 pre no post no
   Step          Temp          E_pair         E_mol          TotEng         Press     
        13   0              0              0              0              0            
        14   0              0              0              0              0            
Loop time of 1.54163e-05 on 4 procs for 1 steps with 1 atoms

timestep 7.7914423164447425e-05
run 1 pre no post no
   Step          Temp          E_pair         E_mol          TotEng         Press     
        14   0              0              0              0              0            
        15   0              0              0              0              0            
Loop time of 2.0816e-05 on 4 procs for 1 steps with 1 atoms

timestep 7.8012248022495375e-05
run 1 pre no post no
   Step          Temp          E_pair         E_mol          TotEng         Press     
        15   0              0              0              0              0            
        16   0              0              0              0              0            
Loop time of 1.88425e-05 on 4 procs for 1 steps with 1 atoms

timestep 7.8110707279603966e-05
run 1 pre no post no
   Step          Temp          E_pair         E_mol          TotEng         Press     
        16   0              0              0              0              0            
        17   0              0              0              0              0            
Loop time of 1.751e-05 on 4 procs for 1 steps with 1 atoms

timestep 7.8209692411972427e-05
run 1 pre no post no
   Step          Temp          E_pair         E_mol          TotEng         Press     
        17   0              0              0              0              0            
        18   0              0              0              0              0            
Loop time of 1.74525e-05 on 4 procs for 1 steps with 1 atoms

timestep 7.8308925768535097e-05
run 1 pre no post no
   Step          Temp          E_pair         E_mol          TotEng         Press     
        18   0              0              0              0              0            
        19   0              0              0              0              0            
Loop time of 2.38695e-05 on 4 procs for 1 steps with 1 atoms

timestep 7.8408408285608554e-05
run 1 pre no post no
   Step          Temp          E_pair         E_mol          TotEng         Press     
        19   0              0              0              0              0            
        20   0              0              0              0              0            
Loop time of 2.62265e-05 on 4 procs for 1 steps with 1 atoms

timestep 7.8508381070285015e-05
run 1 pre no post no
   Step          Temp          E_pair         E_mol          TotEng         Press     
        20   0              0              0              0              0            
        21   0              0              0              0              0            
Loop time of 2.17352e-05 on 4 procs for 1 steps with 1 atoms

timestep 7.8608779282056084e-05
run 1 pre no post no
   Step          Temp          E_pair         E_mol          TotEng         Press     
        21   0              0              0              0              0            
        22   0              0              0              0              0            
Loop time of 1.78505e-05 on 4 procs for 1 steps with 1 atoms

timestep 7.8709430089997601e-05
run 1 pre no post no
   Step          Temp          E_pair         E_mol          TotEng         Press     
        22   0              0              0              0              0            
        23   0              0              0              0              0            
Loop time of 1.82898e-05 on 4 procs for 1 steps with 1 atoms

timestep 7.8810334451651675e-05
run 1 pre no post no
   Step          Temp          E_pair         E_mol          TotEng         Press     
        23   0              0              0              0              0            
        24   0              0              0              0              0            
Loop time of 1.70895e-05 on 4 procs for 1 steps with 1 atoms

timestep 7.8911660940477957e-05
run 1 pre no post no
   Step          Temp          E_pair         E_mol          TotEng         Press     
        24   0              0              0              0              0            
        25   0              0              0              0              0            
Loop time of 1.8076e-05 on 4 procs for 1 steps with 1 atoms

timestep 7.9013366472246752e-05
run 1 pre no post no
   Step          Temp          E_pair         E_mol          TotEng         Press     
        25   0              0              0              0              0            
        26   0              0              0              0              0            
Loop time of 1.79265e-05 on 4 procs for 1 steps with 1 atoms

timestep 7.9115329499124848e-05
run 1 pre no post no
   Step          Temp          E_pair         E_mol          TotEng         Press     
        26   0              0              0              0              0            
        27   0              0              0              0              0            
Loop time of 1.67662e-05 on 4 procs for 1 steps with 1 atoms

timestep 7.9217551004637083e-05
run 1 pre no post no
   Step          Temp          E_pair         E_mol          TotEng         Press     
        27   0              0              0              0              0            
        28   0              0              0              0              0            
Loop time of 1.74697e-05 on 4 procs for 1 steps with 1 atoms

timestep 7.9320142350602408e-05
run 1 pre no post no
   Step          Temp          E_pair         E_mol          TotEng         Press     
        28   0              0              0              0              0            
        29   0              0              0              0              0            
Loop time of 1.6411e-05 on 4 procs for 1 steps with 1 atoms

timestep 7.9423077276317942e-05
run 1 pre no post no
   Step          Temp          E_pair         E_mol          TotEng         Press     
        29   0              0              0              0              0            
        30   0              0              0              0              0            
Loop time of 1.61122e-05 on 4 procs for 1 steps with 1 atoms

timestep 7.9526275303188433e-05
run 1 pre no post no
   Step          Temp          E_pair         E_mol          TotEng         Press     
        30   0              0              0              0              0            
        31   0              0              0              0              0            
Loop time of 1.60745e-05 on 4 procs for 1 steps with 1 atoms

timestep 7.9629737445790176e-05
run 1 pre no post no
   Step          Temp          E_pair         E_mol          TotEng         Press     
        31   0              0              0              0              0            
        32   0              0              0              0              0            
Loop time of 1.48525e-05 on 4 procs for 1 steps with 1 atoms

timestep 7.9733546365954341e-05
run 1 pre no post no
   Step          Temp          E_pair         E_mol          TotEng         Press     
        32   0              0              0              0              0            
        33   0              0              0              0              0            
Loop time of 1.61225e-05 on 4 procs for 1 steps with 1 atoms

timestep 7.9837684549057889e-05
run 1 pre no post no
   Step          Temp          E_pair         E_mol          TotEng         Press     
        33   0              0              0              0              0            
        34   0              0              0              0              0            
Loop time of 1.50133e-05 on 4 procs for 1 steps with 1 atoms

timestep 7.9942092178146844e-05
run 1 pre no post no
   Step          Temp          E_pair         E_mol          TotEng         Press     
        34   0              0              0              0              0            
        35   0              0              0              0              0            
Loop time of 1.94862e-05 on 4 procs for 1 steps with 1 atoms

timestep 8.004677030323507e-05
run 1 pre no post no
   Step          Temp          E_pair         E_mol          TotEng         Press     
        35   0              0              0              0              0            
        36   0              0              0              0              0            
Loop time of 2.09843e-05 on 4 procs for 1 steps with 1 atoms

timestep 8.0151835001223966e-05
run 1 pre no post no
   Step          Temp          E_pair         E_mol          TotEng         Press     
        36   0              0              0              0              0            
        37   0              0              0              0              0            
Loop time of 1.7094e-05 on 4 procs for 1 steps with 1 atoms

timestep 8.025726177190236e-05
run 1 pre no post no
   Step          Temp          E_pair         E_mol          TotEng         Press     
        37   0              0              0              0              0            
        38   0              0              0              0              0            
Loop time of 1.6318e-05 on 4 procs for 1 steps with 1 atoms

timestep 8.0362965017494382e-05
run 1 pre no post no
   Step          Temp          E_pair         E_mol          TotEng         Press     
        38   0              0              0              0              0            
        39   0              0              0              0              0            
Loop time of 1.66408e-05 on 4 procs for 1 steps with 1 atoms

timestep 8.0468945827415455e-05
run 1 pre no post no
   Step          Temp          E_pair         E_mol          TotEng         Press     
        39   0              0              0              0              0            
        40   0              0              0              0              0            
Loop time of 1.80112e-05 on 4 procs for 1 steps with 1 atoms

timestep 8.0575386953699287e-05
run 1 pre no post no
   Step          Temp          E_pair         E_mol          TotEng         Press     
        40   0              0              0              0              0            
        41   0              0              0              0              0            
Loop time of 1.78457e-05 on 4 procs for 1 steps with 1 atoms

timestep 8.0682249276977055e-05
run 1 pre no post no
   Step          Temp          E_pair         E_mol          TotEng         Press     
        41   0              0              0              0              0            
        42   0              0              0              0              0            
Loop time of 1.51155e-05 on 4 procs for 1 steps with 1 atoms

timestep 8.0789395476944448e-05
run 1 pre no post no
   Step          Temp          E_pair         E_mol          TotEng         Press     
        42   0              0              0              0              0            
        43   0              0              0              0              0            
Loop time of 1.87978e-05 on 4 procs for 1 steps with 1 atoms

timestep 8.0896826685185048e-05
run 1 pre no post no
   Step          Temp          E_pair         E_mol          TotEng         Press     
        43   0              0              0              0              0            
        44   0              0              0              0              0            
Loop time of 1.4915e-05 on 4 procs for 1 steps with 1 atoms

timestep 8.1004750912588538e-05
run 1 pre no post no
   Step          Temp          E_pair         E_mol          TotEng         Press     
        44   0              0              0              0              0            
        45   0              0              0              0              0            
Loop time of 2.68952e-05 on 4 procs for 1 steps with 1 atoms

timestep 8.111312411148752e-05
run 1 pre no post no
   Step          Temp          E_pair         E_mol          TotEng         Press     
        45   0              0              0              0              0            
        46   0              0              0              0              0            
Loop time of 2.803e-05 on 4 procs for 1 steps with 1 atoms

timestep 8.1221788017544705e-05
run 1 pre no post no
   Step          Temp          E_pair         E_mol          TotEng         Press     
        46   0              0              0              0              0            
        47   0              0              0              0              0            
Loop time of 3.3753e-05 on 4 procs for 1 steps with 1 atoms

run 0 post no
Generated 0 of 0 mixed pair_coeff terms from geometric mixing rule
Per MPI rank memory allocation (min/avg/max) = 0.4777 | 1.322 | 3.856 Mbytes
   Step          Temp          E_pair         E_mol          TotEng         Press     
        47   76.185437      0              0              1.5777818e-21  5.6767279e-10
Loop time of 1.8185e-06 on 4 procs for 0 steps with 2 atoms

group workflow_remove id 2
1 atoms in group workflow_remove
delete_atoms group workflow_remove compress no
Deleted 1 atoms, new total = 1
group workflow_remove delete
run 0 post no
Generated 0 of 0 mixed pair_coeff terms from geometric mixing rule
Per MPI rank memory allocation (min/avg/max) = 0.4777 | 1.322 | 3.856 Mbytes
   Step          Temp          E_pair         E_mol          TotEng         Press     
        47   0              0              0              0              0            
Loop time of 1.23e-06 on 4 procs for 0 steps with 1 atoms

run 0 post no
Generated 0 of 0 mixed pair_coeff terms from geometric mixing rule
Per MPI rank memory allocation (min/avg/max) = 0.4777 | 1.322 | 3.856 Mbytes
   Step          Temp          E_pair         E_mol          TotEng         Press     
        47   76.185437      0              0              1.5777818e-21  5.6767279e-10
Loop time of 1.405e-06 on 4 procs for 0 steps with 2 atoms

timestep 8.0705371602865511e-05
run 1 pre no post no
   Step          Temp          E_pair         E_mol          TotEng         Press     
        47   76.185437      0              0              1.5777818e-21  5.6767279e-10
        48   106.48114      0              0              2.2051983e-21  7.9341205e-10
Loop time of 1.2426e-05 on 4 procs for 1 steps with 2 atoms

timestep 8.0798265497408883e-05
run 1 pre no post no
   Step          Temp          E_pair         E_mol          TotEng         Press     
        48   106.48114      0              0              2.2051983e-21  7.9341205e-10
        49   106.24147      0              0              2.2002349e-21  7.9162623e-10
Loop time of 1.60225e-05 on 4 procs for 1 steps with 2 atoms

timestep 8.0894055788745424e-05
run 1 pre no post no
   Step          Temp          E_pair         E_mol          TotEng         Press     
        49   106.24147      0              0              2.2002349e-21  7.9162623e-10
        50   106.00195      0              0              2.1952744e-21  7.8984151e-10
Loop time of 1.49625e-05 on 4 procs for 1 steps with 2 atoms

timestep 8.0990102996136734e-05
run 1 pre no post no
   Step          Temp          E_pair         E_mol          TotEng         Press     
        50   106.00195      0              0              2.1952744e-21  7.8984151e-10
        51   105.77541      0              0              2.1905829e-21  7.8815354e-10
Loop time of 1.40485e-05 on 4 procs for 1 steps with 2 atoms

timestep 8.1071865886668068e-05
run 1 pre no post no
   Step          Temp          E_pair         E_mol          TotEng         Press     
        51   105.77541      0              0              2.1905829e-21  7.8815354e-10
        52   105.53625      0              0              2.18563e-21    7.8637153e-10
Loop time of 1.3503e-05 on 4 procs for 1 steps with 2 atoms

timestep 8.116671426922855e-05
run 1 pre no post no
   Step          Temp          E_pair         E_mol          TotEng         Press     
        52   105.53625      0              0              2.18563e-21    7.8637153e-10
        53   105.29585      0              0              2.1806514e-21  7.8458025e-10
Loop time of 1.33745e-05 on 4 procs for 1 steps with 2 atoms

timestep 8.1263278073278824e-05
run 1 pre no post no
   Step          Temp          E_pair         E_mol          TotEng         Press     
        53   105.29585      0              0              2.1806514e-21  7.8458025e-10
        54   105.0556       0              0              2.1756758e-21  7.8279009e-10
Loop time of 1.34527e-05 on 4 procs for 1 steps with 2 atoms

timestep 8.1360105850603124e-05
run 1 pre no post no
   Step          Temp          E_pair         E_mol          TotEng         Press     
        54   105.0556       0              0              2.1756758e-21  7.8279009e-10
        55   104.81548      0              0              2.170703e-21   7.8100092e-10
Loop time of 2.00175e-05 on 4 procs for 1 steps with 2 atoms

timestep 8.1448948556652194e-05
run 1 pre no post no
   Step          Temp          E_pair         E_mol          TotEng         Press     
        55   104.81548      0              0              2.170703e-21   7.8100092e-10
        56   104.58259      0              0              2.16588e-21    7.7926564e-10
Loop time of 2.83727e-05 on 4 procs for 1 steps with 2 atoms

timestep 8.1545538990709154e-05
run 1 pre no post no
   Step          Temp          E_pair         E_mol          TotEng         Press     
        56   104.58259      0              0              2.16588e-21    7.7926564e-10
        57   104.34214      0              0              2.1609003e-21  7.7747398e-10
Loop time of 2.29957e-05 on 4 procs for 1 steps with 2 atoms

timestep 8.1642988930544349e-05
run 1 pre no post no
   Step          Temp          E_pair         E_mol          TotEng         Press     
        57   104.34214      0              0              2.1609003e-21  7.7747398e-10
        58   104.10184      0              0              2.1559238e-21  7.7568347e-10
Loop time of 2.18583e-05 on 4 procs for 1 steps with 2 atoms

timestep 8.1740705958203313e-05
run 1 pre no post no
   Step          Temp          E_pair         E_mol          TotEng         Press     
        58   104.10184      0              0              2.1559238e-21  7.7568347e-10
        59   103.86168      0              0              2.1509501e-21  7.73894e-10  
Loop time of 2.153e-05 on 4 procs for 1 steps with 2 atoms

timestep 8.1832976922895063e-05
run 1 pre no post no
   Step          Temp          E_pair         E_mol          TotEng         Press     
        59   103.86168      0              0              2.1509501e-21  7.73894e-10  
        60   103.62637      0              0              2.1460768e-21  7.7214062e-10
Loop time of 1.90907e-05 on 4 procs for 1 steps with 2 atoms

timestep 8.1930915915367919e-05
run 1 pre no post no
   Step          Temp          E_pair         E_mol          TotEng         Press     
        60   103.62637      0              0              2.1460768e-21  7.7214062e-10
        61   103.38609      0              0              2.1411007e-21  7.7035026e-10
Loop time of 1.93688e-05 on 4 procs for 1 steps with 2 atoms

timestep 8.2029362869891955e-05
run 1 pre no post no
   Step          Temp          E_pair         E_mol          TotEng         Press     
        61   103.38609      0              0              2.1411007e-21  7.7035026e-10
        62   103.14597      0              0              2.1361278e-21  7.6856106e-10
Loop time of 1.71722e-05 on 4 procs for 1 steps with 2 atoms

timestep 8.2128078904742288e-05
run 1 pre no post no
   Step          Temp          E_pair         E_mol          TotEng         Press     
        62   103.14597      0              0              2.1361278e-21  7.6856106e-10
        63   102.90599      0              0              2.131158e-21   7.6677295e-10
Loop time of 1.69565e-05 on 4 procs for 1 steps with 2 atoms

timestep 8.2221749125823695e-05
run 1 pre no post no
   Step          Temp          E_pair         E_mol          TotEng         Press     
        63   102.90599      0              0              2.131158e-21   7.6677295e-10
        64   102.67022      0              0              2.1262752e-21  7.6501614e-10
Loop time of 1.78112e-05 on 4 procs for 1 steps with 2 atoms

timestep 8.2321105327081489e-05
run 1 pre no post no
   Step          Temp          E_pair         E_mol          TotEng         Press     
        64   102.67022      0              0              2.1262752e-21  7.6501614e-10
        65   102.43012      0              0              2.1213028e-21  7.6322714e-10
Loop time of 1.5091e-05 on 4 procs for 1 steps with 2 atoms

timestep 8.2420647045104007e-05
run 1 pre no post no
   Step          Temp          E_pair         E_mol          TotEng         Press     
        65   102.43012      0              0              2.1213028e-21  7.6322714e-10
        66   102.19018      0              0              2.1163338e-21  7.6143933e-10
Loop time of 1.50955e-05 on 4 procs for 1 steps with 2 atoms

timestep 8.2520459903945252e-05
run 1 pre no post no
   Step          Temp          E_pair         E_mol          TotEng         Press     
        66   102.19018      0              0              2.1163338e-21  7.6143933e-10
        67   101.9504       0              0              2.111368e-21   7.5965266e-10
Loop time of 2.56128e-05 on 4 procs for 1 steps with 2 atoms

timestep 8.2615758922373466e-05
run 1 pre no post no
   Step          Temp          E_pair         E_mol          TotEng         Press     
        67   101.9504       0              0              2.111368e-21   7.5965266e-10
        68   101.71394      0              0              2.1064709e-21  7.5789074e-10
Loop time of 2.1129e-05 on 4 procs for 1 steps with 2 atoms

timestep 8.2716769003924909e-05
run 1 pre no post no
   Step          Temp          E_pair         E_mol          TotEng         Press     
        68   101.71394      0              0              2.1064709e-21  7.5789074e-10
        69   101.47412      0              0              2.1015044e-21  7.5610382e-10
Loop time of 1.7891e-05 on 4 procs for 1 steps with 2 atoms

timestep 8.2817418780322598e-05
run 1 pre no post no
   Step          Temp          E_pair         E_mol          TotEng         Press     
        69   101.47412      0              0              2.1015044e-21  7.5610382e-10
        70   101.23446      0              0              2.0965411e-21  7.5431806e-10
Loop time of 1.98873e-05 on 4 procs for 1 steps with 2 atoms

timestep 8.2918343261562832e-05
run 1 pre no post no
   Step          Temp          E_pair         E_mol          TotEng         Press     
        70   101.23446      0              0              2.0965411e-21  7.5431806e-10
        71   100.99497      0              0              2.0915811e-21  7.5253352e-10
Loop time of 1.75255e-05 on 4 procs for 1 steps with 2 atoms

timestep 8.3016358518709938e-05
run 1 pre no post no
   Step          Temp          E_pair         E_mol          TotEng         Press     
        71   100.99497      0              0              2.0915811e-21  7.5253352e-10
        72   100.75716      0              0              2.0866562e-21  7.5076158e-10
Loop time of 1.5484e-05 on 4 procs for 1 steps with 2 atoms

timestep 8.3118951890024146e-05
run 1 pre no post no
   Step          Temp          E_pair         E_mol          TotEng         Press     
        72   100.75716      0              0              2.0866562e-21  7.5076158e-10
        73   100.51783      0              0              2.0816997e-21  7.4897827e-10
Loop time of 1.52532e-05 on 4 procs for 1 steps with 2 atoms

timestep 8.3220682144584396e-05
run 1 pre no post no
   Step          Temp          E_pair         E_mol          TotEng         Press     
        73   100.51783      0              0              2.0816997e-21  7.4897827e-10
        74   100.27865      0              0              2.0767464e-21  7.4719611e-10
Loop time of 1.45895e-05 on 4 procs for 1 steps with 2 atoms

timestep 8.3322692200810762e-05
run 1 pre no post no
   Step          Temp          E_pair         E_mol          TotEng         Press     
        74   100.27865      0              0              2.0767464e-21  7.4719611e-10
        75   100.03964      0              0              2.0717965e-21  7.4541519e-10
Loop time of 1.4837e-05 on 4 procs for 1 steps with 2 atoms

timestep 8.3423927714937197e-05
run 1 pre no post no
   Step          Temp          E_pair         E_mol          TotEng         Press     
        75   100.03964      0              0              2.0717965e-21  7.4541519e-10
        76   99.800679      0              0              2.0668477e-21  7.4363465e-10
Loop time of 1.36735e-05 on 4 procs for 1 steps with 2 atoms

timestep 8.3527628379278937e-05
run 1 pre no post no
   Step          Temp          E_pair         E_mol          TotEng         Press     
        76   99.800679      0              0              2.0668477e-21  7.4363465e-10
        77   99.562039      0              0              2.0619055e-21  7.4185649e-10
Loop time of 1.29565e-05 on 4 procs for 1 steps with 2 atoms

timestep 8.3630415214599801e-05
run 1 pre no post no
   Step          Temp          E_pair         E_mol          TotEng         Press     
        77   99.562039      0              0              2.0619055e-21  7.4185649e-10
        78   99.323551      0              0              2.0569665e-21  7.4007947e-10
Loop time of 1.29245e-05 on 4 procs for 1 steps with 2 atoms

timestep 8.3733488325068173e-05
run 1 pre no post no
   Step          Temp          E_pair         E_mol          TotEng         Press     
        78   99.323551      0              0              2.0569665e-21  7.4007947e-10
        79   99.085232      0              0              2.052031e-21   7.3830371e-10
Loop time of 1.33775e-05 on 4 procs for 1 steps with 2 atoms

timestep 8.3836430751026741e-05
run 1 pre no post no
   Step          Temp          E_pair         E_mol          TotEng         Press     
        79   99.085232      0              0              2.052031e-21   7.3830371e-10
        80   98.846765      0              0              2.0470924e-21  7.3652684e-10
Loop time of 1.98173e-05 on 4 procs for 1 steps with 2 atoms

timestep 8.394086657225132e-05
run 1 pre no post no
   Step          Temp          E_pair         E_mol          TotEng         Press     
        80   98.846765      0              0              2.0470924e-21  7.3652684e-10
        81   98.60882       0              0              2.0421646e-21  7.3475386e-10
Loop time of 1.359e-05 on 4 procs for 1 steps with 2 atoms

timestep 8.4044748471425948e-05
run 1 pre no post no
   Step          Temp          E_pair         E_mol          TotEng         Press     
        81   98.60882       0              0              2.0421646e-21  7.3475386e-10
        82   98.371025      0              0              2.0372399e-21  7.3298201e-10
Loop time of 1.35333e-05 on 4 procs for 1 steps with 2 atoms

timestep 8.4148924258209065e-05
run 1 pre no post no
   Step          Temp          E_pair         E_mol          TotEng         Press     
        82   98.371025      0              0              2.0372399e-21  7.3298201e-10
        83   98.133399      0              0              2.0323187e-21  7.3121141e-10
Loop time of 1.3388e-05 on 4 procs for 1 steps with 2 atoms

timestep 8.4252232173346865e-05
run 1 pre no post no
   Step          Temp          E_pair         E_mol          TotEng         Press     
        83   98.133399      0              0              2.0323187e-21  7.3121141e-10
        84   97.896524      0              0              2.0274131e-21  7.2944641e-10
Loop time of 1.33172e-05 on 4 procs for 1 steps with 2 atoms

timestep 8.4357369155173924e-05
run 1 pre no post no
   Step          Temp          E_pair         E_mol          TotEng         Press     
        84   97.896524      0              0              2.0274131e-21  7.2944641e-10
        85   97.65914       0              0              2.022497e-21   7.2767761e-10
Loop time of 1.62602e-05 on 4 procs for 1 steps with 2 atoms

timestep 8.4462420181830538e-05
run 1 pre no post no
   Step          Temp          E_pair         E_mol          TotEng         Press     
        85   97.65914       0              0              2.022497e-21   7.2767761e-10
        86   97.421911      0              0              2.017584e-21   7.2590997e-10
Loop time of 2.15255e-05 on 4 procs for 1 steps with 2 atoms

timestep 8.4567772187732544e-05
run 1 pre no post no
   Step          Temp          E_pair         E_mol          TotEng         Press     
        86   97.421911      0              0              2.017584e-21   7.2590997e-10
        87   97.18485       0              0              2.0126745e-21  7.2414358e-10
Loop time of 2.39497e-05 on 4 procs for 1 steps with 2 atoms

timestep 8.4672248004036868e-05
run 1 pre no post no
   Step          Temp          E_pair         E_mol          TotEng         Press     
        87   97.18485       0              0              2.0126745e-21  7.2414358e-10
        88   96.948694      0              0              2.0077838e-21  7.2238394e-10
Loop time of 1.86948e-05 on 4 procs for 1 steps with 2 atoms

run 0 post no
Generated 0 of 0 mixed pair_coeff terms from geometric mixing rule
Per MPI rank memory allocation (min/avg/max) = 0.4777 | 1.322 | 3.856 Mbytes
   Step          Temp          E_pair         E_mol          TotEng         Press     
        88   48.474347      0              0              2.0077838e-21  7.2238394e-10
Loop time of 1.31775e-06 on 4 procs for 0 steps with 3 atoms

group workflow_remove id 4
1 atoms in group workflow_remove
delete_atoms group workflow_remove compress no
Deleted 1 atoms, new total = 2
group workflow_remove delete
run 0 post no
Generated 0 of 0 mixed pair_coeff terms from geometric mixing rule
Per MPI rank memory allocation (min/avg/max) = 0.4777 | 1.322 | 3.856 Mbytes
   Step          Temp          E_pair         E_mol          TotEng         Press     
        88   96.948694      0              0              2.0077838e-21  7.2238394e-10
Loop time of 1.1195e-06 on 4 procs for 0 steps with 2 atoms

run 0 post no
Generated 0 of 0 mixed pair_coeff terms from geometric mixing rule
Per MPI rank memory allocation (min/avg/max) = 0.4777 | 1.322 | 3.856 Mbytes
   Step          Temp          E_pair         E_mol          TotEng         Press     
        88   48.474347      0              0              2.0077838e-21  7.2238394e-10
Loop time of 1.26725e-06 on 4 procs for 0 steps with 3 atoms

timestep 8.1615717586611196e-05
run 1 pre no post no
   Step          Temp          E_pair         E_mol          TotEng         Press     
        88   48.474347      0              0              2.0077838e-21  7.2238394e-10
        89   80.318334      0              0              3.3267462e-21  1.1969357e-09
Loop time of 1.24788e-05 on 4 procs for 1 steps with 3 atoms

timestep 8.1736330349390588e-05
run 1 pre no post no
   Step          Temp          E_pair         E_mol          TotEng         Press     
        89   80.318334      0              0              3.3267462e-21  1.1969357e-09
        90   80.111168      0              0              3.3181655e-21  1.1938484e-09
Loop time of 1.66112e-05 on 4 procs for 1 steps with 3 atoms

timestep 8.1857181506570515e-05
run 1 pre no post no
   Step          Temp          E_pair         E_mol          TotEng         Press     
        90   80.111168      0              0              3.3181655e-21  1.1938484e-09
        91   79.904182      0              0              3.3095922e-21  1.1907638e-09
Loop time of 1.34403e-05 on 4 procs for 1 steps with 3 atoms

timestep 8.197826567415838e-05
run 1 pre no post no
   Step          Temp          E_pair         E_mol          TotEng         Press     
        91   79.904182      0              0              3.3095922e-21  1.1907638e-09
        92   79.69567       0              0              3.3009558e-21  1.1876565e-09
Loop time of 1.38357e-05 on 4 procs for 1 steps with 3 atoms

timestep 8.2127030127268378e-05
run 1 pre no post no
   Step          Temp          E_pair         E_mol          TotEng         Press     
        92   79.69567       0              0              3.3009558e-21  1.1876565e-09
        93   79.487133      0              0              3.2923182e-21  1.1845488e-09
Loop time of 1.3693e-05 on 4 procs for 1 steps with 3 atoms

timestep 8.2251300489073927e-05
run 1 pre no post no
   Step          Temp          E_pair         E_mol          TotEng         Press     
        93   79.487133      0              0              3.2923182e-21  1.1845488e-09
        94   79.278886      0              0              3.2836928e-21  1.1814454e-09
Loop time of 1.31145e-05 on 4 procs for 1 steps with 3 atoms

timestep 8.2375766269792393e-05
run 1 pre no post no
   Step          Temp          E_pair         E_mol          TotEng         Press     
        94   79.278886      0              0              3.2836928e-21  1.1814454e-09
        95   79.070841      0              0              3.2750757e-21  1.178345e-09 
Loop time of 1.324e-05 on 4 procs for 1 steps with 3 atoms

timestep 8.25004163241587e-05
run 1 pre no post no
   Step          Temp          E_pair         E_mol          TotEng         Press     
        95   79.070841      0              0              3.2750757e-21  1.178345e-09 
        96   78.861859      0              0              3.2664197e-21  1.1752307e-09
Loop time of 1.3139e-05 on 4 procs for 1 steps with 3 atoms

timestep 8.2633992976704516e-05
run 1 pre no post no
   Step          Temp          E_pair         E_mol          TotEng         Press     
        96   78.861859      0              0              3.2664197e-21  1.1752307e-09
        97   78.653291      0              0              3.2577809e-21  1.1721225e-09
Loop time of 1.33678e-05 on 4 procs for 1 steps with 3 atoms

timestep 8.2760333690693025e-05
run 1 pre no post no
   Step          Temp          E_pair         E_mol          TotEng         Press     
        97   78.653291      0              0              3.2577809e-21  1.1721225e-09
        98   78.445179      0              0              3.249161e-21   1.1690212e-09
Loop time of 1.37103e-05 on 4 procs for 1 steps with 3 atoms

timestep 8.2886779800834764e-05
run 1 pre no post no
   Step          Temp          E_pair         E_mol          TotEng         Press     
        98   78.445179      0              0              3.249161e-21   1.1690212e-09
        99   78.237333      0              0              3.2405521e-21  1.1659238e-09
Loop time of 2.0944e-05 on 4 procs for 1 steps with 3 atoms

timestep 7.530136102409841e-05
run 1 pre no post no
   Step          Temp          E_pair         E_mol          TotEng         Press     
        99   78.237333      0              0              3.2405521e-21  1.1659238e-09
       100   78.03889       0              0              3.2323328e-21  1.1629665e-09
Loop time of 1.35403e-05 on 4 procs for 1 steps with 3 atoms

timestep 4.7415463084598011e-05
run 1 pre no post no
   Step          Temp          E_pair         E_mol          TotEng         Press     
       100   78.03889       0              0              3.2323328e-21  1.1629665e-09
       101   77.885329      0              0              3.2259723e-21  1.160678e-09 
Loop time of 1.34778e-05 on 4 procs for 1 steps with 3 atoms

timestep 3.7989482918748527e-05
run 1 pre no post no
   Step          Temp          E_pair         E_mol          TotEng         Press     
       101   77.885329      0              0              3.2259723e-21  1.160678e-09 
       102   77.778757      0              0              3.2215582e-21  1.1590899e-09
Loop time of 1.3277e-05 on 4 procs for 1 steps with 3 atoms

timestep 3.8422679513267661e-05
run 1 pre no post no
   Step          Temp          E_pair         E_mol          TotEng         Press     
       102   77.778757      0              0              3.2215582e-21  1.1590899e-09
       103   77.681685      0              0              3.2175375e-21  1.1576433e-09
Loop time of 1.30468e-05 on 4 procs for 1 steps with 3 atoms

timestep 3.8866608117551043e-05
run 1 pre no post no
   Step          Temp          E_pair         E_mol          TotEng         Press     
       103   77.681685      0              0              3.2175375e-21  1.1576433e-09
       104   77.562855      0              0              3.2126156e-21  1.1558724e-09
Loop time of 1.6248e-05 on 4 procs for 1 steps with 3 atoms

timestep 3.9286944586321355e-05
run 1 pre no post no
   Step          Temp          E_pair         E_mol          TotEng         Press     
       104   77.562855      0              0              3.2126156e-21  1.1558724e-09
       105   77.465415      0              0              3.2085797e-21  1.1544203e-09
Loop time of 1.32297e-05 on 4 procs for 1 steps with 3 atoms

timestep 3.9719936337654449e-05
run 1 pre no post no
   Step          Temp          E_pair         E_mol          TotEng         Press     
       105   77.465415      0              0              3.2085797e-21  1.1544203e-09
       106   77.367028      0              0              3.2045045e-21  1.1529541e-09
Loop time of 1.9637e-05 on 4 procs for 1 steps with 3 atoms

timestep 4.0166224267183947e-05
run 1 pre no post no
   Step          Temp          E_pair         E_mol          TotEng         Press     
       106   77.367028      0              0              3.2045045e-21  1.1529541e-09
       107   77.267664      0              0              3.200389e-21   1.1514734e-09
Loop time of 1.33502e-05 on 4 procs for 1 steps with 3 atoms

timestep 4.0477997414869337e-05
run 1 pre no post no
   Step          Temp          E_pair         E_mol          TotEng         Press     
       107   77.267664      0              0              3.200389e-21   1.1514734e-09
       108   77.16771       0              0              3.1962489e-21  1.1499838e-09
Loop time of 1.31045e-05 on 4 procs for 1 steps with 3 atoms

timestep 4.1282549838500131e-05
run 1 pre no post no
   Step          Temp          E_pair         E_mol          TotEng         Press     
       108   77.16771       0              0              3.1962489e-21  1.1499838e-09
       109   77.065623      0              0              3.1920205e-21  1.1484625e-09
Loop time of 4.61335e-05 on 4 procs for 1 steps with 3 atoms

timestep 4.1794581395296584e-05
run 1 pre no post no
   Step          Temp          E_pair         E_mol          TotEng         Press     
       109   77.065623      0              0              3.1920205e-21  1.1484625e-09
       110   76.962641      0              0              3.187755e-21   1.1469278e-09
Loop time of 2.6557e-05 on 4 procs for 1 steps with 3 atoms

timestep 4.2324318901314342e-05
run 1 pre no post no
   Step          Temp          E_pair         E_mol          TotEng         Press     
       110   76.962641      0              0              3.187755e-21   1.1469278e-09
       111   76.858499      0              0              3.1834415e-21  1.1453758e-09
Loop time of 2.8736e-05 on 4 procs for 1 steps with 3 atoms

timestep 4.2872792390825744e-05
run 1 pre no post no
   Step          Temp          E_pair         E_mol          TotEng         Press     
       111   76.858499      0              0              3.1834415e-21  1.1453758e-09
       112   76.753156      0              0              3.1790783e-21  1.143806e-09 
Loop time of 2.05202e-05 on 4 procs for 1 steps with 3 atoms

timestep 4.3441118330433288e-05
run 1 pre no post no
   Step          Temp          E_pair         E_mol          TotEng         Press     
       112   76.753156      0              0              3.1790783e-21  1.143806e-09 
       113   76.64657       0              0              3.1746635e-21  1.1422176e-09
Loop time of 2.39923e-05 on 4 procs for 1 steps with 3 atoms

timestep 4.4030508217880198e-05
run 1 pre no post no
   Step          Temp          E_pair         E_mol          TotEng         Press     
       113   76.64657       0              0              3.1746635e-21  1.1422176e-09
       114   76.538696      0              0              3.1701954e-21  1.14061e-09  
Loop time of 1.92885e-05 on 4 procs for 1 steps with 3 atoms

timestep 4.4642279217203473e-05
run 1 pre no post no
   Step          Temp          E_pair         E_mol          TotEng         Press     
       114   76.538696      0              0              3.1701954e-21  1.14061e-09  
       115   76.429485      0              0              3.165672e-21   1.1389825e-09
Loop time of 1.47955e-05 on 4 procs for 1 steps with 3 atoms

timestep 4.5475547635776734e-05
run 1 pre no post no
   Step          Temp          E_pair         E_mol          TotEng         Press     
       115   76.429485      0              0              3.165672e-21   1.1389825e-09
       116   76.319411      0              0              3.1611127e-21  1.1373421e-09
Loop time of 1.45342e-05 on 4 procs for 1 steps with 3 atoms

timestep 4.6499670756612352e-05
run 1 pre no post no
   Step          Temp          E_pair         E_mol          TotEng         Press     
       116   76.319411      0              0              3.1611127e-21  1.1373421e-09
       117   76.205492      0              0              3.1563943e-21  1.1356445e-09
Loop time of 1.4196e-05 on 4 procs for 1 steps with 3 atoms

timestep 4.7226572859087422e-05
run 1 pre no post no
   Step          Temp          E_pair         E_mol          TotEng         Press     
       117   76.205492      0              0              3.1563943e-21  1.1356445e-09
       118   76.090544      0              0              3.1516332e-21  1.1339315e-09
Loop time of 1.40488e-05 on 4 procs for 1 steps with 3 atoms

timestep 4.798549648337663e-05
run 1 pre no post no
   Step          Temp          E_pair         E_mol          TotEng         Press     
       118   76.090544      0              0              3.1516332e-21  1.1339315e-09
       119   75.973939      0              0              3.1468035e-21  1.1321938e-09
Loop time of 1.41517e-05 on 4 procs for 1 steps with 3 atoms

timestep 4.8778833048564463e-05
run 1 pre no post no
   Step          Temp          E_pair         E_mol          TotEng         Press     
       119   75.973939      0              0              3.1468035e-21  1.1321938e-09
       120   75.855604      0              0              3.1419021e-21  1.1304303e-09
Loop time of 2.6076e-05 on 4 procs for 1 steps with 3 atoms

timestep 4.9609232037658184e-05
run 1 pre no post no
   Step          Temp          E_pair         E_mol          TotEng         Press     
       120   75.855604      0              0              3.1419021e-21  1.1304303e-09
       121   75.735459      0              0              3.1369258e-21  1.1286398e-09
Loop time of 2.25447e-05 on 4 procs for 1 steps with 3 atoms

timestep 5.0479636344041014e-05
run 1 pre no post no
   Step          Temp          E_pair         E_mol          TotEng         Press     
       121   75.735459      0              0              3.1369258e-21  1.1286398e-09
       122   75.613419      0              0              3.1318709e-21  1.1268212e-09
Loop time of 2.05455e-05 on 4 procs for 1 steps with 3 atoms

timestep 5.1973083347074331e-05
run 1 pre no post no
   Step          Temp          E_pair         E_mol          TotEng         Press     
       122   75.613419      0              0              3.1318709e-21  1.1268212e-09
       123   75.489529      0              0              3.1267394e-21  1.1249749e-09
Loop time of 2.2582e-05 on 4 procs for 1 steps with 3 atoms

timestep 5.3430690256364499e-05
run 1 pre no post no
   Step          Temp          E_pair         E_mol          TotEng         Press     
       123   75.489529      0              0              3.1267394e-21  1.1249749e-09
       124   75.360141      0              0              3.1213803e-21  1.1230467e-09
Loop time of 2.65623e-05 on 4 procs for 1 steps with 3 atoms

timestep 5.4523026852735699e-05
run 1 pre no post no
   Step          Temp          E_pair         E_mol          TotEng         Press     
       124   75.360141      0              0              3.1213803e-21  1.1230467e-09
       125   75.229222      0              0              3.1159577e-21  1.1210957e-09
Loop time of 1.77685e-05 on 4 procs for 1 steps with 3 atoms

timestep 5.5679422713726239e-05
run 1 pre no post no
   Step          Temp          E_pair         E_mol          TotEng         Press     
       125   75.229222      0              0              3.1159577e-21  1.1210957e-09
       126   75.095794      0              0              3.1104312e-21  1.1191073e-09
Loop time of 1.72125e-05 on 4 procs for 1 steps with 3 atoms

timestep 5.6906318247308145e-05
run 1 pre no post no
   Step          Temp          E_pair         E_mol          TotEng         Press     
       126   75.095794      0              0              3.1104312e-21  1.1191073e-09
       127   74.959708      0              0              3.1047945e-21  1.1170793e-09
Loop time of 1.65782e-05 on 4 procs for 1 steps with 3 atoms

timestep 5.8211097021088926e-05
run 1 pre no post no
   Step          Temp          E_pair         E_mol          TotEng         Press     
       127   74.959708      0              0              3.1047945e-21  1.1170793e-09
       128   74.820799      0              0              3.099041e-21   1.1150092e-09
Loop time of 1.46652e-05 on 4 procs for 1 steps with 3 atoms

timestep 5.9602267326699361e-05
run 1 pre no post no
   Step          Temp          E_pair         E_mol          TotEng         Press     
       128   74.820799      0              0              3.099041e-21   1.1150092e-09
       129   74.679338      0              0              3.0931817e-21  1.1129011e-09
Loop time of 1.4269e-05 on 4 procs for 1 steps with 3 atoms

timestep 6.2747580143646163e-05
run 1 pre no post no
   Step          Temp          E_pair         E_mol          TotEng         Press     
       129   74.679338      0              0              3.0931817e-21  1.1129011e-09
       130   74.530743      0              0              3.087027e-21   1.1106867e-09
Loop time of 1.49655e-05 on 4 procs for 1 steps with 3 atoms

timestep 6.4501102275824418e-05
run 1 pre no post no
   Step          Temp          E_pair         E_mol          TotEng         Press     
       130   74.530743      0              0              3.087027e-21   1.1106867e-09
       131   74.378232      0              0              3.0807101e-21  1.1084139e-09
Loop time of 1.45595e-05 on 4 procs for 1 steps with 3 atoms

timestep 6.6398805288287371e-05
run 1 pre no post no
   Step          Temp          E_pair         E_mol          TotEng         Press     
       131   74.378232      0              0              3.0807101e-21  1.1084139e-09
       132   74.221646      0              0              3.0742244e-21  1.1060804e-09
Loop time of 2.03685e-05 on 4 procs for 1 steps with 3 atoms

timestep 6.8461351108915644e-05
run 1 pre no post no
   Step          Temp          E_pair         E_mol          TotEng         Press     
       132   74.221646      0              0              3.0742244e-21  1.1060804e-09
       133   74.060644      0              0              3.0675558e-21  1.1036811e-09
Loop time of 2.50717e-05 on 4 procs for 1 steps with 3 atoms

run 0 post no
Generated 0 of 0 mixed pair_coeff terms from geometric mixing rule
Per MPI rank memory allocation (min/avg/max) = 0.4777 | 1.322 | 3.856 Mbytes
   Step          Temp          E_pair         E_mol          TotEng         Press     
       133   49.373763      0              0              3.0675558e-21  1.1036811e-09
Loop time of 1.317e-06 on 4 procs for 0 steps with 4 atoms

group workflow_remove id 5
1 atoms in group workflow_remove
delete_atoms group workflow_remove compress no
Deleted 1 atoms, new total = 3
group workflow_remove delete
run 0 post no
Generated 0 of 0 mixed pair_coeff terms from geometric mixing rule
Per MPI rank memory allocation (min/avg/max) = 0.4777 | 1.322 | 3.856 Mbytes
   Step          Temp          E_pair         E_mol          TotEng         Press     
       133   74.060644      0              0              3.0675558e-21  1.1036811e-09
Loop time of 1.152e-06 on 4 procs for 0 steps with 3 atoms

run 0 post no
Generated 0 of 0 mixed pair_coeff terms from geometric mixing rule
Per MPI rank memory allocation (min/avg/max) = 0.4777 | 1.322 | 3.856 Mbytes
   Step          Temp          E_pair         E_mol          TotEng         Press     
       133   49.373763      0              0              3.0675558e-21  1.1036811e-09
Loop time of 1.30475e-06 on 4 procs for 0 steps with 4 atoms

timestep 7.0764749146033743e-05
run 1 pre no post no
   Step          Temp          E_pair         E_mol          TotEng         Press     
       133   49.373763      0              0              3.0675558e-21  1.1036811e-09
       134   51.49382       0              0              3.1992733e-21  1.151072e-09 
Loop time of 1.2659e-05 on 4 procs for 1 steps with 4 atoms

timestep 7.119315523211081e-05
run 1 pre no post no
   Step          Temp          E_pair         E_mol          TotEng         Press     
       134   51.49382       0              0              3.1992733e-21  1.151072e-09 
       135   51.39207       0              0              3.1929517e-21  1.1487975e-09
Loop time of 1.43895e-05 on 4 procs for 1 steps with 4 atoms

timestep 6.9403228895137639e-05
run 1 pre no post no
   Step          Temp          E_pair         E_mol          TotEng         Press     
       135   51.39207       0              0              3.1929517e-21  1.1487975e-09
       136   51.293228      0              0              3.1868107e-21  1.146588e-09 
Loop time of 1.4219e-05 on 4 procs for 1 steps with 4 atoms

timestep 6.7777120435169092e-05
run 1 pre no post no
   Step          Temp          E_pair         E_mol          TotEng         Press     
       136   51.293228      0              0              3.1868107e-21  1.146588e-09 
       137   51.197101      0              0              3.1808384e-21  1.1444393e-09
Loop time of 2.30178e-05 on 4 procs for 1 steps with 4 atoms

timestep 6.6289759956061664e-05
run 1 pre no post no
   Step          Temp          E_pair         E_mol          TotEng         Press     
       137   51.197101      0              0              3.1808384e-21  1.1444393e-09
       138   51.103378      0              0              3.1750154e-21  1.1423442e-09
Loop time of 2.3897e-05 on 4 procs for 1 steps with 4 atoms

timestep 6.4921384437597042e-05
run 1 pre no post no
   Step          Temp          E_pair         E_mol          TotEng         Press     
       138   51.103378      0              0              3.1750154e-21  1.1423442e-09
       139   51.011797      0              0              3.1693256e-21  1.140297e-09 
Loop time of 2.16977e-05 on 4 procs for 1 steps with 4 atoms

timestep 6.5508178112320882e-05
run 1 pre no post no
   Step          Temp          E_pair         E_mol          TotEng         Press     
       139   51.011797      0              0              3.1693256e-21  1.140297e-09 
       140   50.919458      0              0              3.1635886e-21  1.1382329e-09
Loop time of 2.22138e-05 on 4 procs for 1 steps with 4 atoms

timestep 6.4247508987146345e-05
run 1 pre no post no
   Step          Temp          E_pair         E_mol          TotEng         Press     
       140   50.919458      0              0              3.1635886e-21  1.1382329e-09
       141   50.829369      0              0              3.1579915e-21  1.1362191e-09
Loop time of 2.2442e-05 on 4 procs for 1 steps with 4 atoms

timestep 6.307655134476626e-05
run 1 pre no post no
   Step          Temp          E_pair         E_mol          TotEng         Press     
       141   50.829369      0              0              3.1579915e-21  1.1362191e-09
       142   50.741057      0              0              3.1525047e-21  1.134245e-09 
Loop time of 2.26723e-05 on 4 procs for 1 steps with 4 atoms

timestep 6.1984779051480913e-05
run 1 pre no post no
   Step          Temp          E_pair         E_mol          TotEng         Press     
       142   50.741057      0              0              3.1525047e-21  1.134245e-09 
       143   50.654387      0              0              3.14712e-21    1.1323076e-09
Loop time of 2.60915e-05 on 4 procs for 1 steps with 4 atoms

Total wall time: 0:00:14
