ITEM: TIMESTEP
98
ITEM: NUMBER OF ATOMS
8
ITEM: BOX BOUNDS pp pp pp
8.0090314919576298e-05 1.7844071187841779e-04
5.5701359566515553e-05 1.5485135324859965e-04
1.1143341591952393e-04 1.6720528736569626e-04
ITEM: ATOMS id diameter xu yu zu vx vy vz
1 1.3019648173758141e-06 0.0001570318241706505 0.00013582015653045845 0.00012905203062011668 0.00012481313300423372 4.0882043386310304e-05 2.4885243847571855e-05
2 1.784397450334973e-06 0.00015443852427079032 0.00013449891481941468 0.00012876593204576325 8.8341256287453364e-05 5.9842063812546244e-05 7.8173053518646649e-06
3 1.184279187338301e-06 0.00014264835870528888 0.00012618047556910451 0.00012399678853171556 0.00010838193142728865 3.4438762891937432e-05 7.6569137534569147e-05
4 1.1067794561365052e-06 0.00010291580537128335 5.8743619661613108e-05 0.00013626484526225589 -8.6849477859701253e-05 0.00014507494449277137 -0.00026926667202596384
5 2.4391238072427157e-06 0.0001514868684344662 0.00013205422185003654 0.00012854876073108501 5.9602637135843314e-05 5.207191739744944e-05 4.1641796885144343e-06
6 1.8390512128787445e-06 0.00014381793604191653 0.00012653329987858422 0.00012488853623145469 7.5793483759486297e-05 2.9012849665894299e-05 6.1196532055587821e-05
7 2.9611208650371429e-06 0.00014624075200671532 0.0001277454646610185 0.00012713850159065893 4.9670844624914514e-05 3.2380189786824946e-05 3.5941076813739377e-05
8 1.5300138469969057e-06 0.00015315057416741566 0.00013328579001785937 0.00012875083197266444 7.2019510144292291e-05 5.7516905187287352e-05 4.8419124601925713e-06
