Passive overdamped sphere storage only; density not used by integrator

8 atoms
1 atom types

8.0090314919576298e-05 0.00017844071187841779 xlo xhi
5.5701359566515553e-05 0.00015485135324859965 ylo yhi
0.00011143341591952393 0.00016720528736569626 zlo zhi

Atoms # sphere

1 1 1.3019648173758141e-06 1 0.00015635185239884058 0.00013556108230037159 0.00012892459424045609
2 1 1.784397450334973e-06 1 0.00015395306222911273 0.00013416178803469703 0.00012872469505964546
3 1 1.184279187338301e-06 1 0.00014195911138047352 0.00012596592162146024 0.00012352731635856845
4 1 1.1067794561365052e-06 1 0.00010337856948401742 5.8000200145838068e-05 0.00013792005737693551
5 1 2.4391238072427157e-06 1 0.0001511544736977636 0.00013176299786496918 0.00012852479587883479
6 1 1.8390512128787445e-06 1 0.00014335840564614811 0.00012636571998308154 0.00012452681226262171
7 1 2.9611208650371429e-06 1 0.0001459570949966866 0.00012756511506794546 0.00012692560243234957
8 1 1.5300138469969057e-06 1 0.0001527536671442488 0.00013296239294983311 0.00012872469505964546

Velocities

1 0 0 0 0 0 0
2 0 0 0 0 0 0
3 0 0 0 0 0 0
4 0 0 0 0 0 0
5 0 0 0 0 0 0
6 0 0 0 0 0 0
7 0 0 0 0 0 0
8 0 0 0 0 0 0
