LAMMPS (2 Sep 2026)
units si
atom_style sphere
boundary p p p
newton off
processors 2 2 1
read_data particles.data
Reading data file ...
  orthogonal box = (-6.4e-05 -6.4e-05 -6.4e-05) to (6.4e-05 6.4e-05 6.4e-05)
  2 by 2 by 1 MPI processor grid
  reading atoms ...
  1000 atoms
  reading velocities ...
  1000 velocities
  read_data CPU = 0.005 seconds
comm_modify vel yes
pair_style zero 6e-6
pair_coeff * *
neighbor 1e-6 bin
neigh_modify every 1 delay 0 check no
fix passive all sonovue/passive/flow ../../fields/UNIFORM_FIELD.h5 4 trajectory NONE 0 0
timestep 4.7012332740341915e-05
thermo 80
thermo_style custom step atoms time
thermo_modify lost error norm no format float %.17g
run 0
Generated 0 of 0 mixed pair_coeff terms from geometric mixing rule
Neighbor list info ...
  update: every = 1 steps, delay = 0 steps, check = no
  max neighbors/atom: 2000, page size: 100000
  master list distance cutoff = 7e-06
  ghost atom cutoff = 7e-06
  binsize = 3.5e-06, bins = 37 37 37
  1 neighbor lists, perpetual/occasional/extra = 1 0 0
  (1) pair zero, perpetual
      attributes: half, newton off
      pair build: half/bin/atomonly/newtoff
      stencil: full/bin/3d
      bin: standard
Per MPI rank memory allocation (min/avg/max) = 3.901 | 3.901 | 3.901 Mbytes
   Step        Atoms         Time     
         0        1000  0
Loop time of 1.498e-06 on 4 procs for 0 steps with 1000 atoms

16.7% CPU use with 4 MPI tasks x no OpenMP threads

MPI task timing breakdown:
Section |  min time  |  avg time  |  max time  |%varavg| %total
---------------------------------------------------------------
Pair    | 0          | 0          | 0          |   0.0 |  0.00
Neigh   | 0          | 0          | 0          |   0.0 |  0.00
Comm    | 0          | 0          | 0          |   0.0 |  0.00
Output  | 0          | 0          | 0          |   0.0 |  0.00
Modify  | 0          | 0          | 0          |   0.0 |  0.00
Other   |            | 1.498e-06  |            |       |100.00

Nlocal:            250 ave         250 max         250 min
Histogram: 4 0 0 0 0 0 0 0 0 0
Nghost:            110 ave         110 max         110 min
Histogram: 4 0 0 0 0 0 0 0 0 0
Neighs:              0 ave           0 max           0 min
Histogram: 4 0 0 0 0 0 0 0 0 0

Total # of neighbors = 0
Ave neighs/atom = 0
Neighbor list builds = 0
Dangerous builds not checked
write_dump all custom initial.dump id diameter xu yu zu vx vy vz modify sort id format float %.17g
run 800
Generated 0 of 0 mixed pair_coeff terms from geometric mixing rule
Per MPI rank memory allocation (min/avg/max) = 3.901 | 3.901 | 3.901 Mbytes
   Step        Atoms         Time     
         0        1000  0
        80        1000  0.0037609866192273534
       160        1000  0.0075219732384547069
       240        1000  0.011282959857682059
       320        1000  0.015043946476909414
       400        1000  0.018804933096136765
       480        1000  0.022565919715364119
       560        1000  0.026326906334591473
       640        1000  0.030087892953818828
       720        1000  0.033848879573046178
       800        1000  0.037609866192273529
Loop time of 0.595811 on 4 procs for 800 steps with 1000 atoms

97.4% CPU use with 4 MPI tasks x no OpenMP threads

MPI task timing breakdown:
Section |  min time  |  avg time  |  max time  |%varavg| %total
---------------------------------------------------------------
Pair    | 2.8298e-05 | 3.093e-05  | 3.3269e-05 |   0.0 |  0.01
Neigh   | 0.020371   | 0.03204    | 0.046678   |   6.0 |  5.38
Comm    | 0.012456   | 0.013016   | 0.013853   |   0.5 |  2.18
Output  | 3.0297e-05 | 4.2372e-05 | 7.0523e-05 |   0.0 |  0.01
Modify  | 0.53498    | 0.5499     | 0.5621     |   1.5 | 92.29
Other   |            | 0.000779   |            |       |  0.13

Nlocal:            250 ave         480 max          80 min
Histogram: 1 1 0 0 0 0 1 0 0 1
Nghost:            140 ave         160 max         120 min
Histogram: 1 0 1 0 0 0 0 1 0 1
Neighs:              0 ave           0 max           0 min
Histogram: 4 0 0 0 0 0 0 0 0 0

Total # of neighbors = 0
Ave neighs/atom = 0
Neighbor list builds = 800
Dangerous builds not checked
write_dump all custom final.dump id diameter xu yu zu vx vy vz modify sort id format float %.17g
print "PASSIVE_CASE_COMPLETED"
PASSIVE_CASE_COMPLETED
Total wall time: 0:00:00
