LAMMPS (2 Sep 2026)
units si
atom_style sphere
boundary p p p
newton off
processors 1 1 1
read_data particles.data
Reading data file ...
  orthogonal box = (-4e-05 -4e-05 -4e-05) to (4e-05 4e-05 4e-05)
  1 by 1 by 1 MPI processor grid
  reading atoms ...
  1 atoms
  reading velocities ...
  1 velocities
  read_data CPU = 0.001 seconds
comm_modify vel yes
pair_style zero 6e-6
pair_coeff * *
neighbor 1e-6 bin
neigh_modify every 1 delay 0 check no
fix integrator all nve/sphere
fix coupling all frozen/flow/drag ../../fields/UNIFORM_FIELD.h5 0.001 1 trajectory -1 0 0 0 0
timestep 6.2499999999999991e-11
thermo 4113
thermo_style custom step atoms time ke
thermo_modify lost error norm no format float %.17g
run 0
Generated 0 of 0 mixed pair_coeff terms from geometric mixing rule
Neighbor list info ...
  update: every = 1 steps, delay = 0 steps, check = no
  max neighbors/atom: 2000, page size: 100000
  master list distance cutoff = 7e-06
  ghost atom cutoff = 7e-06
  binsize = 3.5e-06, bins = 23 23 23
  1 neighbor lists, perpetual/occasional/extra = 1 0 0
  (1) pair zero, perpetual
      attributes: half, newton off
      pair build: half/bin/atomonly/newtoff
      stencil: full/bin/3d
      bin: standard
Per MPI rank memory allocation (min/avg/max) = 3.89 | 3.89 | 3.89 Mbytes
   Step        Atoms         Time          KinEng    
         0           1  0 0
Loop time of 1.393e-06 on 1 procs for 0 steps with 1 atoms

0.0% CPU use with 1 MPI tasks x no OpenMP threads

MPI task timing breakdown:
Section |  min time  |  avg time  |  max time  |%varavg| %total
---------------------------------------------------------------
Pair    | 0          | 0          | 0          |   0.0 |  0.00
Neigh   | 0          | 0          | 0          |   0.0 |  0.00
Comm    | 0          | 0          | 0          |   0.0 |  0.00
Output  | 0          | 0          | 0          |   0.0 |  0.00
Modify  | 0          | 0          | 0          |   0.0 |  0.00
Other   |            | 1.393e-06  |            |       |100.00

Nlocal:              1 ave           1 max           1 min
Histogram: 1 0 0 0 0 0 0 0 0 0
Nghost:              0 ave           0 max           0 min
Histogram: 1 0 0 0 0 0 0 0 0 0
Neighs:              0 ave           0 max           0 min
Histogram: 1 0 0 0 0 0 0 0 0 0

Total # of neighbors = 0
Ave neighs/atom = 0
Neighbor list builds = 0
Dangerous builds not checked
write_dump all custom initial.dump id diameter mass xu yu zu vx vy vz fx fy fz modify sort id format float %.17g
run 41130
Generated 0 of 0 mixed pair_coeff terms from geometric mixing rule
Per MPI rank memory allocation (min/avg/max) = 3.89 | 3.89 | 3.89 Mbytes
   Step        Atoms         Time          KinEng    
         0           1  0 0
      4113           1  2.5706249999999996e-07 0
      8226           1  5.1412499999999993e-07 0
     12339           1  7.7118749999999989e-07 0
     16452           1  1.0282499999999999e-06 0
     20565           1  1.2853124999999998e-06 0
     24678           1  1.5423749999999998e-06 0
     28791           1  1.7994374999999997e-06 0
     32904           1  2.0564999999999997e-06 0
     37017           1  2.3135624999999997e-06 0
     41130           1  2.5706249999999996e-06 0
Loop time of 0.443005 on 1 procs for 41130 steps with 1 atoms

97.9% CPU use with 1 MPI tasks x no OpenMP threads

MPI task timing breakdown:
Section |  min time  |  avg time  |  max time  |%varavg| %total
---------------------------------------------------------------
Pair    | 0.0011498  | 0.0011498  | 0.0011498  |   0.0 |  0.26
Neigh   | 0.24207    | 0.24207    | 0.24207    |   0.0 | 54.64
Comm    | 0.0068387  | 0.0068387  | 0.0068387  |   0.0 |  1.54
Output  | 5.1647e-05 | 5.1647e-05 | 5.1647e-05 |   0.0 |  0.01
Modify  | 0.18865    | 0.18865    | 0.18865    |   0.0 | 42.58
Other   |            | 0.004245   |            |       |  0.96

Nlocal:              1 ave           1 max           1 min
Histogram: 1 0 0 0 0 0 0 0 0 0
Nghost:              0 ave           0 max           0 min
Histogram: 1 0 0 0 0 0 0 0 0 0
Neighs:              0 ave           0 max           0 min
Histogram: 1 0 0 0 0 0 0 0 0 0

Total # of neighbors = 0
Ave neighs/atom = 0
Neighbor list builds = 41130
Dangerous builds not checked
write_dump all custom final.dump id diameter mass xu yu zu vx vy vz fx fy fz modify sort id format float %.17g
print "COUPLING_CASE_COMPLETED"
COUPLING_CASE_COMPLETED
Total wall time: 0:00:00
