LAMMPS (2 Sep 2026)
KOKKOS mode with Kokkos version 5.2.1 is enabled
  using double precision
  using view layout = legacy
  will use up to 1 GPU(s) per node
Reading data file ...
  orthogonal box = (0 0 0) to (8e-05 8e-05 8e-05)
  1 by 1 by 1 MPI processor grid
  reading atoms ...
  1000 atoms
  reading velocities ...
  1000 velocities
  read_data CPU = 0.011 seconds

CITE-CITE-CITE-CITE-CITE-CITE-CITE-CITE-CITE-CITE-CITE-CITE-CITE

Your simulation uses code contributions which should be cited:
- KOKKOS package: https://doi.org/10.1145/3731599.3767498
The log file lists these citations in BibTeX format.

CITE-CITE-CITE-CITE-CITE-CITE-CITE-CITE-CITE-CITE-CITE-CITE-CITE

Generated 0 of 0 mixed pair_coeff terms from geometric mixing rule
Neighbor list info ...
  update: every = 1 steps, delay = 0 steps, check = no
  max neighbors/atom: 2000, page size: 100000
  master list distance cutoff = 7e-06
  ghost atom cutoff = 7e-06
  binsize = 7e-06, bins = 12 12 12
  1 neighbor lists, perpetual/occasional/extra = 1 0 0
  (1) pair zero, perpetual
      attributes: half, newton off
      pair build: half/bin/atomonly/newtoff
      stencil: full/bin/3d
      bin: standard
Setting up Verlet run ...
  Unit style    : si
  Current step  : 0
  Time step     : 1e-05
Per MPI rank memory allocation (min/avg/max) = 4.135 | 4.135 | 4.135 Mbytes
   Step        Atoms         Time          KinEng    
         0        1000  0 6.5433282456135684e-17
Loop time of 0.000356225 on 1 procs for 0 steps with 1000 atoms

27.8% CPU use with 1 MPI tasks x 1 OpenMP threads

MPI task timing breakdown:
Section |  min time  |  avg time  |  max time  |%varavg| %total
---------------------------------------------------------------
Pair    | 0          | 0          | 0          |   0.0 |  0.00
Neigh   | 0          | 0          | 0          |   0.0 |  0.00
Comm    | 0          | 0          | 0          |   0.0 |  0.00
Output  | 0          | 0          | 0          |   0.0 |  0.00
Modify  | 0          | 0          | 0          |   0.0 |  0.00
Other   |            | 0.0003562  |            |       |100.00

Nlocal:           1000 ave        1000 max        1000 min
Histogram: 1 0 0 0 0 0 0 0 0 0
Nghost:            728 ave         728 max         728 min
Histogram: 1 0 0 0 0 0 0 0 0 0
Neighs:              0 ave           0 max           0 min
Histogram: 1 0 0 0 0 0 0 0 0 0

Total # of neighbors = 0
Ave neighs/atom = 0
Neighbor list builds = 0
Dangerous builds not checked
Generated 0 of 0 mixed pair_coeff terms from geometric mixing rule
Setting up Verlet run ...
  Unit style    : si
  Current step  : 0
  Time step     : 1e-05
Per MPI rank memory allocation (min/avg/max) = 4.135 | 4.135 | 4.135 Mbytes
   Step        Atoms         Time          KinEng    
         0        1000  0 6.5433282456135684e-17
        20        1000  0.00020000000000000001 6.5433282456135684e-17
        40        1000  0.00040000000000000002 6.5433282456135684e-17
        60        1000  0.00060000000000000006 6.5433282456135684e-17
        80        1000  0.00080000000000000004 6.5433282456135684e-17
       100        1000  0.001 6.5433282456135684e-17
       120        1000  0.0012000000000000001 6.5433282456135684e-17
       140        1000  0.0014000000000000002 6.5433282456135684e-17
       160        1000  0.0016000000000000001 6.5433282456135684e-17
       180        1000  0.0018000000000000002 6.5433282456135684e-17
       200        1000  0.002 6.5433282456135684e-17
Loop time of 0.196769 on 1 procs for 200 steps with 1000 atoms

100.0% CPU use with 1 MPI tasks x 1 OpenMP threads

MPI task timing breakdown:
Section |  min time  |  avg time  |  max time  |%varavg| %total
---------------------------------------------------------------
Pair    | 0.010651   | 0.010651   | 0.010651   |   0.0 |  5.41
Neigh   | 0.070411   | 0.070411   | 0.070411   |   0.0 | 35.78
Comm    | 0.037536   | 0.037536   | 0.037536   |   0.0 | 19.08
Output  | 0.00045053 | 0.00045053 | 0.00045053 |   0.0 |  0.23
Modify  | 0.068558   | 0.068558   | 0.068558   |   0.0 | 34.84
Other   |            | 0.009163   |            |       |  4.66

Nlocal:           1000 ave        1000 max        1000 min
Histogram: 1 0 0 0 0 0 0 0 0 0
Nghost:            584 ave         584 max         584 min
Histogram: 1 0 0 0 0 0 0 0 0 0
Neighs:              0 ave           0 max           0 min
Histogram: 1 0 0 0 0 0 0 0 0 0

Total # of neighbors = 0
Ave neighs/atom = 0
Neighbor list builds = 200
Dangerous builds not checked
ENGINE_CASE_COMPLETED
Total wall time: 0:00:00
