ITEM: TIMESTEP
0
ITEM: NUMBER OF ATOMS
2
ITEM: BOX BOUNDS ff ff ff
-1.0000000000000000e-03 1.0000000000000000e-03
-1.0000000000000000e-03 1.0000000000000000e-03
-1.0000000000000000e-03 1.0000000000000000e-03
ITEM: ATOMS id type x y z i_particle_type i_shape_mode d2_quat[1] d2_quat[2] d2_quat[3] d2_quat[4] d2_velocity[1] d2_velocity[2] d2_velocity[3] d2_omega[1] d2_omega[2] d2_omega[3] d_radius d2_axes[1] d2_axes[2] d2_axes[3] d2_capsule_axis[1] d2_capsule_axis[2] d2_capsule_axis[3] d_capsule_radius d_capsule_length d_bound_radius d2_rotation[1] d2_rotation[2] d2_rotation[3] d2_rotation[4] d2_rotation[5] d2_rotation[6] d2_rotation[7] d2_rotation[8] d2_rotation[9]
101 1 0 0 0 1 1 1 0 0 0 0 0 0 0 0 0 1e-06 0 0 0 0 0 0 0 0 1e-06 0 0 0 0 0 0 0 0 0
909 1 3e-06 0 0 1 1 1 0 0 0 0 0 0 0 0 0 1e-06 0 0 0 0 0 0 0 0 1e-06 0 0 0 0 0 0 0 0 0
