ITEM: TIMESTEP
0
ITEM: NUMBER OF ATOMS
6
ITEM: BOX BOUNDS ff ff ff
-1.0000000000000000e-03 1.0000000000000000e-03
-1.0000000000000000e-03 1.0000000000000000e-03
-1.0000000000000000e-03 1.0000000000000000e-03
ITEM: ATOMS id type x y z i_particle_type i_shape_mode d2_quat[1] d2_quat[2] d2_quat[3] d2_quat[4] d2_velocity[1] d2_velocity[2] d2_velocity[3] d2_omega[1] d2_omega[2] d2_omega[3] d_radius d2_axes[1] d2_axes[2] d2_axes[3] d2_capsule_axis[1] d2_capsule_axis[2] d2_capsule_axis[3] d_capsule_radius d_capsule_length d_bound_radius d2_rotation[1] d2_rotation[2] d2_rotation[3] d2_rotation[4] d2_rotation[5] d2_rotation[6] d2_rotation[7] d2_rotation[8] d2_rotation[9]
11 1 0 0 0 1 1 0.949153 0.140789 0.281579 0 2e-07 0 0 0 0 0.2 1e-06 0 0 0 0 0 0 0 0 1e-06 0 0 0 0 0 0 0 0 0
101 1 2.001e-06 0 0 1 1 0.949153 0.140789 0.281579 0 -2e-07 0 0 0 0 0.2 1e-06 0 0 0 0 0 0 0 0 1e-06 0 0 0 0 0 0 0 0 0
307 2 1e-05 0 0 2 2 0.949153 -0.281579 0.140789 0 1e-07 5e-08 0 0.00127924 -0.0663614 -0.172852 0 3.28758e-06 3.28758e-06 9.54227e-07 0 0 0 0 0 3.28758e-06 0.960357 -0.0792865 0.267261 -0.0792865 0.841427 0.534522 -0.267261 -0.534522 0.801784
409 2 2e-05 0 0 2 3 0.949153 0.140789 0.281579 0 1e-07 5e-08 0 0 0 0 0 0 0 0 0.408248 -0.408248 0.816497 1.67583e-06 2.66201e-06 3.00684e-06 0 0 0 0 0 0 0 0 0
503 2 3e-05 1e-06 0 2 2 0.949153 -0.281579 0.140789 0 1e-07 5e-08 0 0.00127924 -0.0663614 -0.172852 0 3.28758e-06 3.28758e-06 9.54227e-07 0 0 0 0 0 3.28758e-06 0.960357 -0.0792865 0.267261 -0.0792865 0.841427 0.534522 -0.267261 -0.534522 0.801784
887 2 4e-05 0 0 2 3 0.949153 0.140789 0.281579 0 1e-07 5e-08 0 0 0 0 0 0 0 0 0.408248 -0.408248 0.816497 1.67583e-06 2.66201e-06 3.00684e-06 0 0 0 0 0 0 0 0 0
