LAMMPS (2 Sep 2026)
Reading data file ...
  orthogonal box = (0 0 0) to (0.0001 0.0001 0.0001)
  1 by 1 by 1 MPI processor grid
  reading atoms ...
  2 atoms
  reading velocities ...
  2 velocities
  read_data CPU = 0.001 seconds
Generated 0 of 0 mixed pair_coeff terms from geometric mixing rule
Neighbor list info ...
  update: every = 1 steps, delay = 0 steps, check = no
  max neighbors/atom: 2000, page size: 100000
  master list distance cutoff = 2.6830133e-06
  ghost atom cutoff = 2.6830133e-06
  binsize = 1.3415067e-06, bins = 75 75 75
  1 neighbor lists, perpetual/occasional/extra = 1 0 0
  (1) pair gran/hooke/history, perpetual
      attributes: half, newton off, size, history
      pair build: half/size/bin/atomonly/newtoff
      stencil: full/bin/3d
      bin: standard
Setting up Verlet run ...
  Unit style    : si
  Current step  : 0
  Time step     : 1e-08
Per MPI rank memory allocation (min/avg/max) = 11.41 | 11.41 | 11.41 Mbytes
   Step        Atoms         Time          KinEng    
         0           2  0 0
Loop time of 1.122e-06 on 1 procs for 0 steps with 2 atoms

0.0% CPU use with 1 MPI tasks x no OpenMP threads

MPI task timing breakdown:
Section |  min time  |  avg time  |  max time  |%varavg| %total
---------------------------------------------------------------
Pair    | 0          | 0          | 0          |   0.0 |  0.00
Neigh   | 0          | 0          | 0          |   0.0 |  0.00
Comm    | 0          | 0          | 0          |   0.0 |  0.00
Output  | 0          | 0          | 0          |   0.0 |  0.00
Modify  | 0          | 0          | 0          |   0.0 |  0.00
Other   |            | 1.122e-06  |            |       |100.00

Nlocal:              2 ave           2 max           2 min
Histogram: 1 0 0 0 0 0 0 0 0 0
Nghost:              0 ave           0 max           0 min
Histogram: 1 0 0 0 0 0 0 0 0 0
Neighs:              0 ave           0 max           0 min
Histogram: 1 0 0 0 0 0 0 0 0 0

Total # of neighbors = 0
Ave neighs/atom = 0
Neighbor list builds = 0
Dangerous builds not checked
Generated 0 of 0 mixed pair_coeff terms from geometric mixing rule
Setting up Verlet run ...
  Unit style    : si
  Current step  : 0
  Time step     : 1e-08
Per MPI rank memory allocation (min/avg/max) = 11.41 | 11.41 | 11.41 Mbytes
   Step        Atoms         Time          KinEng    
         0           2  0 0
        20           2  1.9999999999999999e-07 0
        40           2  3.9999999999999998e-07 0
        60           2  5.9999999999999997e-07 0
        80           2  7.9999999999999996e-07 0
       100           2  9.9999999999999995e-07 0
       120           2  1.1999999999999999e-06 0
       140           2  1.3999999999999999e-06 0
       160           2  1.5999999999999999e-06 0
       180           2  1.8000000000000001e-06 0
       200           2  1.9999999999999999e-06 0
Loop time of 0.0268851 on 1 procs for 200 steps with 2 atoms

97.3% CPU use with 1 MPI tasks x no OpenMP threads

MPI task timing breakdown:
Section |  min time  |  avg time  |  max time  |%varavg| %total
---------------------------------------------------------------
Pair    | 1.0058e-05 | 1.0058e-05 | 1.0058e-05 |   0.0 |  0.04
Neigh   | 0.026667   | 0.026667   | 0.026667   |   0.0 | 99.19
Comm    | 5.4651e-05 | 5.4651e-05 | 5.4651e-05 |   0.0 |  0.20
Output  | 4.8199e-05 | 4.8199e-05 | 4.8199e-05 |   0.0 |  0.18
Modify  | 6.6608e-05 | 6.6608e-05 | 6.6608e-05 |   0.0 |  0.25
Other   |            | 3.868e-05  |            |       |  0.14

Nlocal:              2 ave           2 max           2 min
Histogram: 1 0 0 0 0 0 0 0 0 0
Nghost:              0 ave           0 max           0 min
Histogram: 1 0 0 0 0 0 0 0 0 0
Neighs:              0 ave           0 max           0 min
Histogram: 1 0 0 0 0 0 0 0 0 0

Total # of neighbors = 0
Ave neighs/atom = 0
Neighbor list builds = 200
Dangerous builds not checked
ENGINE_CASE_COMPLETED
Total wall time: 0:00:00
