ITEM: TIMESTEP
76653
ITEM: NUMBER OF ATOMS
1
ITEM: BOX BOUNDS pp pp pp
-4.0000000000000003e-05 4.0000000000000003e-05
-4.0000000000000003e-05 4.0000000000000003e-05
-4.0000000000000003e-05 4.0000000000000003e-05
ITEM: ATOMS id diameter mass xu yu zu vx vy vz fx fy fz
1 4.1529149865974255e-06 3.7502286290345049e-14 3.9224159690046927e-09 -8.1317783342129783e-10 1.1530086633556192e-09 0.0010421637794325398 -0.00022544084575608977 0.00029881287851470594 8.7629062728356461e-13 -3.93963462846938e-13 9.2803772578494922e-14
