LAMMPS (22 Jul 2025 - Update 6)
units si
atom_style sphere
boundary p p p
newton off
processors 1 1 1
read_data particles.data
Reading data file ...
  orthogonal box = (-6.4e-05 -6.4e-05 -6.4e-05) to (6.4e-05 6.4e-05 6.4e-05)
  1 by 1 by 1 MPI processor grid
  reading atoms ...
  1 atoms
  reading velocities ...
  1 velocities
  read_data CPU = 0.001 seconds
comm_modify vel yes
pair_style zero 6e-6
pair_coeff * *
neighbor 1e-6 bin
neigh_modify every 1 delay 0 check no
fix passive all sonovue/passive/flow ../../fields/UNIFORM_FIELD.h5 2 trajectory NONE 0 0
timestep 9.4024665480683831e-05
thermo 40
thermo_style custom step atoms time
thermo_modify lost error norm no format float %.17g
run 0
Generated 0 of 0 mixed pair_coeff terms from geometric mixing rule
Neighbor list info ...
  update: every = 1 steps, delay = 0 steps, check = no
  max neighbors/atom: 2000, page size: 100000
  master list distance cutoff = 7e-06
  ghost atom cutoff = 7e-06
  binsize = 3.5e-06, bins = 37 37 37
  1 neighbor lists, perpetual/occasional/extra = 1 0 0
  (1) pair zero, perpetual
      attributes: half, newton off
      pair build: half/bin/atomonly/newtoff
      stencil: full/bin/3d
      bin: standard
Per MPI rank memory allocation (min/avg/max) = 4.089 | 4.089 | 4.089 Mbytes
   Step        Atoms         Time     
         0           1  0
Loop time of 1.423e-06 on 1 procs for 0 steps with 1 atoms

140.5% CPU use with 1 MPI tasks x no OpenMP threads

MPI task timing breakdown:
Section |  min time  |  avg time  |  max time  |%varavg| %total
---------------------------------------------------------------
Pair    | 0          | 0          | 0          |   0.0 |  0.00
Neigh   | 0          | 0          | 0          |   0.0 |  0.00
Comm    | 0          | 0          | 0          |   0.0 |  0.00
Output  | 0          | 0          | 0          |   0.0 |  0.00
Modify  | 0          | 0          | 0          |   0.0 |  0.00
Other   |            | 1.423e-06  |            |       |100.00

Nlocal:              1 ave           1 max           1 min
Histogram: 1 0 0 0 0 0 0 0 0 0
Nghost:              0 ave           0 max           0 min
Histogram: 1 0 0 0 0 0 0 0 0 0
Neighs:              0 ave           0 max           0 min
Histogram: 1 0 0 0 0 0 0 0 0 0

Total # of neighbors = 0
Ave neighs/atom = 0
Neighbor list builds = 0
Dangerous builds not checked
write_dump all custom initial.dump id diameter xu yu zu vx vy vz modify sort id format float %.17g
run 400
Generated 0 of 0 mixed pair_coeff terms from geometric mixing rule
Per MPI rank memory allocation (min/avg/max) = 4.089 | 4.089 | 4.089 Mbytes
   Step        Atoms         Time     
         0           1  0
        40           1  0.0037609866192273534
        80           1  0.0075219732384547069
       120           1  0.011282959857682059
       160           1  0.015043946476909414
       200           1  0.018804933096136765
       240           1  0.022565919715364119
       280           1  0.026326906334591473
       320           1  0.030087892953818828
       360           1  0.033848879573046178
       400           1  0.037609866192273529
Loop time of 0.0155281 on 1 procs for 400 steps with 1 atoms

100.0% CPU use with 1 MPI tasks x no OpenMP threads

MPI task timing breakdown:
Section |  min time  |  avg time  |  max time  |%varavg| %total
---------------------------------------------------------------
Pair    | 1.9635e-05 | 1.9635e-05 | 1.9635e-05 |   0.0 |  0.13
Neigh   | 0.013089   | 0.013089   | 0.013089   |   0.0 | 84.29
Comm    | 0.00011535 | 0.00011535 | 0.00011535 |   0.0 |  0.74
Output  | 4.1087e-05 | 4.1087e-05 | 4.1087e-05 |   0.0 |  0.26
Modify  | 0.0021872  | 0.0021872  | 0.0021872  |   0.0 | 14.09
Other   |            | 7.577e-05  |            |       |  0.49

Nlocal:              1 ave           1 max           1 min
Histogram: 1 0 0 0 0 0 0 0 0 0
Nghost:              0 ave           0 max           0 min
Histogram: 1 0 0 0 0 0 0 0 0 0
Neighs:              0 ave           0 max           0 min
Histogram: 1 0 0 0 0 0 0 0 0 0

Total # of neighbors = 0
Ave neighs/atom = 0
Neighbor list builds = 400
Dangerous builds not checked
write_dump all custom final.dump id diameter xu yu zu vx vy vz modify sort id format float %.17g
print "PASSIVE_CASE_COMPLETED"
PASSIVE_CASE_COMPLETED
Total wall time: 0:00:00
