LAMMPS (2 Sep 2026)
units si
dimension 3
boundary p p p
atom_style sphere
newton off
processors 1 1 1
read_data particles.data
Reading data file ...
  orthogonal box = (0 0 0) to (8e-05 8e-05 8e-05)
  1 by 1 by 1 MPI processor grid
  reading atoms ...
  1000 atoms
  reading velocities ...
  1000 velocities
  read_data CPU = 0.006 seconds
comm_modify vel yes
neighbor 1e-6 bin
neigh_modify every 1 delay 0 check no
pair_style gran/hooke/history 0.001 0 0 0 0 0
pair_coeff * *
fix integrate all nve/sphere
timestep 1e-08
thermo 20
thermo_style custom step atoms time ke
thermo_modify lost error norm no format float %.17g
run 0
Generated 0 of 0 mixed pair_coeff terms from geometric mixing rule
Neighbor list info ...
  update: every = 1 steps, delay = 0 steps, check = no
  max neighbors/atom: 2000, page size: 100000
  master list distance cutoff = 5.8174526e-06
  ghost atom cutoff = 5.8174526e-06
  binsize = 2.9087263e-06, bins = 28 28 28
  1 neighbor lists, perpetual/occasional/extra = 1 0 0
  (1) pair gran/hooke/history, perpetual
      attributes: half, newton off, size, history
      pair build: half/size/bin/atomonly/newtoff
      stencil: full/bin/3d
      bin: standard
Per MPI rank memory allocation (min/avg/max) = 9.659 | 9.659 | 9.659 Mbytes
   Step        Atoms         Time          KinEng    
         0        1000  0 0
Loop time of 1.072e-06 on 1 procs for 0 steps with 1000 atoms

93.3% CPU use with 1 MPI tasks x no OpenMP threads

MPI task timing breakdown:
Section |  min time  |  avg time  |  max time  |%varavg| %total
---------------------------------------------------------------
Pair    | 0          | 0          | 0          |   0.0 |  0.00
Neigh   | 0          | 0          | 0          |   0.0 |  0.00
Comm    | 0          | 0          | 0          |   0.0 |  0.00
Output  | 0          | 0          | 0          |   0.0 |  0.00
Modify  | 0          | 0          | 0          |   0.0 |  0.00
Other   |            | 1.072e-06  |            |       |100.00

Nlocal:           1000 ave        1000 max        1000 min
Histogram: 1 0 0 0 0 0 0 0 0 0
Nghost:            728 ave         728 max         728 min
Histogram: 1 0 0 0 0 0 0 0 0 0
Neighs:              0 ave           0 max           0 min
Histogram: 1 0 0 0 0 0 0 0 0 0

Total # of neighbors = 0
Ave neighs/atom = 0
Neighbor list builds = 0
Dangerous builds not checked
write_dump all custom initial.dump id type diameter radius mass x y z xu yu zu vx vy vz omegax omegay omegaz fx fy fz proc ix iy iz modify sort id format float %.17g
run 200
Generated 0 of 0 mixed pair_coeff terms from geometric mixing rule
Per MPI rank memory allocation (min/avg/max) = 9.659 | 9.659 | 9.659 Mbytes
   Step        Atoms         Time          KinEng    
         0        1000  0 0
        20        1000  1.9999999999999999e-07 0
        40        1000  3.9999999999999998e-07 0
        60        1000  5.9999999999999997e-07 0
        80        1000  7.9999999999999996e-07 0
       100        1000  9.9999999999999995e-07 0
       120        1000  1.1999999999999999e-06 0
       140        1000  1.3999999999999999e-06 0
       160        1000  1.5999999999999999e-06 0
       180        1000  1.8000000000000001e-06 0
       200        1000  1.9999999999999999e-06 0
Loop time of 0.036568 on 1 procs for 200 steps with 1000 atoms

100.0% CPU use with 1 MPI tasks x no OpenMP threads

MPI task timing breakdown:
Section |  min time  |  avg time  |  max time  |%varavg| %total
---------------------------------------------------------------
Pair    | 0.00058426 | 0.00058426 | 0.00058426 |   0.0 |  1.60
Neigh   | 0.025653   | 0.025653   | 0.025653   |   0.0 | 70.15
Comm    | 0.0034351  | 0.0034351  | 0.0034351  |   0.0 |  9.39
Output  | 7.9639e-05 | 7.9639e-05 | 7.9639e-05 |   0.0 |  0.22
Modify  | 0.0059458  | 0.0059458  | 0.0059458  |   0.0 | 16.26
Other   |            | 0.0008699  |            |       |  2.38

Nlocal:           1000 ave        1000 max        1000 min
Histogram: 1 0 0 0 0 0 0 0 0 0
Nghost:            728 ave         728 max         728 min
Histogram: 1 0 0 0 0 0 0 0 0 0
Neighs:              0 ave           0 max           0 min
Histogram: 1 0 0 0 0 0 0 0 0 0

Total # of neighbors = 0
Ave neighs/atom = 0
Neighbor list builds = 200
Dangerous builds not checked
write_dump all custom final.dump id type diameter radius mass x y z xu yu zu vx vy vz omegax omegay omegaz fx fy fz proc ix iy iz modify sort id format float %.17g
print "ENGINE_CASE_COMPLETED"
ENGINE_CASE_COMPLETED
Total wall time: 0:00:00
