LAMMPS (2 Sep 2026)
Reading data file ...
  orthogonal box = (-6.4e-05 -6.4e-05 -6.4e-05) to (6.4e-05 6.4e-05 6.4e-05)
  1 by 1 by 1 MPI processor grid
  reading atoms ...
  1 atoms
  reading velocities ...
  1 velocities
  read_data CPU = 0.000 seconds
Generated 0 of 0 mixed pair_coeff terms from geometric mixing rule
Neighbor list info ...
  update: every = 1 steps, delay = 0 steps, check = no
  max neighbors/atom: 2000, page size: 100000
  master list distance cutoff = 7e-06
  ghost atom cutoff = 7e-06
  binsize = 3.5e-06, bins = 37 37 37
  1 neighbor lists, perpetual/occasional/extra = 1 0 0
  (1) pair zero, perpetual
      attributes: half, newton off
      pair build: half/bin/atomonly/newtoff
      stencil: full/bin/3d
      bin: standard
Setting up Verlet run ...
  Unit style    : si
  Current step  : 0
  Time step     : 9.402466548068383e-05
Per MPI rank memory allocation (min/avg/max) = 4.089 | 4.089 | 4.089 Mbytes
   Step        Atoms         Time     
         0           1  0
Loop time of 8.52e-07 on 1 procs for 0 steps with 1 atoms

117.4% CPU use with 1 MPI tasks x no OpenMP threads

MPI task timing breakdown:
Section |  min time  |  avg time  |  max time  |%varavg| %total
---------------------------------------------------------------
Pair    | 0          | 0          | 0          |   0.0 |  0.00
Neigh   | 0          | 0          | 0          |   0.0 |  0.00
Comm    | 0          | 0          | 0          |   0.0 |  0.00
Output  | 0          | 0          | 0          |   0.0 |  0.00
Modify  | 0          | 0          | 0          |   0.0 |  0.00
Other   |            | 8.52e-07   |            |       |100.00

Nlocal:              1 ave           1 max           1 min
Histogram: 1 0 0 0 0 0 0 0 0 0
Nghost:              0 ave           0 max           0 min
Histogram: 1 0 0 0 0 0 0 0 0 0
Neighs:              0 ave           0 max           0 min
Histogram: 1 0 0 0 0 0 0 0 0 0

Total # of neighbors = 0
Ave neighs/atom = 0
Neighbor list builds = 0
Dangerous builds not checked
Generated 0 of 0 mixed pair_coeff terms from geometric mixing rule
Setting up Verlet run ...
  Unit style    : si
  Current step  : 0
  Time step     : 9.402466548068383e-05
Per MPI rank memory allocation (min/avg/max) = 4.089 | 4.089 | 4.089 Mbytes
   Step        Atoms         Time     
         0           1  0
        40           1  0.0037609866192273534
        80           1  0.0075219732384547069
       120           1  0.011282959857682059
       160           1  0.015043946476909414
       200           1  0.018804933096136765
       240           1  0.022565919715364119
       280           1  0.026326906334591473
       320           1  0.030087892953818828
       360           1  0.033848879573046178
       400           1  0.037609866192273529
Loop time of 0.0090097 on 1 procs for 400 steps with 1 atoms

100.0% CPU use with 1 MPI tasks x no OpenMP threads

MPI task timing breakdown:
Section |  min time  |  avg time  |  max time  |%varavg| %total
---------------------------------------------------------------
Pair    | 1.1129e-05 | 1.1129e-05 | 1.1129e-05 |   0.0 |  0.12
Neigh   | 0.0077052  | 0.0077052  | 0.0077052  |   0.0 | 85.52
Comm    | 6.2148e-05 | 6.2148e-05 | 6.2148e-05 |   0.0 |  0.69
Output  | 2.6509e-05 | 2.6509e-05 | 2.6509e-05 |   0.0 |  0.29
Modify  | 0.0011624  | 0.0011624  | 0.0011624  |   0.0 | 12.90
Other   |            | 4.222e-05  |            |       |  0.47

Nlocal:              1 ave           1 max           1 min
Histogram: 1 0 0 0 0 0 0 0 0 0
Nghost:              0 ave           0 max           0 min
Histogram: 1 0 0 0 0 0 0 0 0 0
Neighs:              0 ave           0 max           0 min
Histogram: 1 0 0 0 0 0 0 0 0 0

Total # of neighbors = 0
Ave neighs/atom = 0
Neighbor list builds = 400
Dangerous builds not checked
PASSIVE_CASE_COMPLETED
Total wall time: 0:00:00
