ITEM: TIMESTEP
55035
ITEM: NUMBER OF ATOMS
1
ITEM: BOX BOUNDS pp pp pp
-4.0000000000000003e-05 4.0000000000000003e-05
-4.0000000000000003e-05 4.0000000000000003e-05
-4.0000000000000003e-05 4.0000000000000003e-05
ITEM: ATOMS id diameter mass xu yu zu vx vy vz fx fy fz
1 3.5189117793561866e-06 2.2815172639534839e-14 2.7564224640972494e-09 -5.5128449281945094e-10 8.2692673922917211e-10 0.00099326395021656438 -0.00019865279004331054 0.0002979791850649681 2.234109850341004e-13 -4.4682197006897031e-14 6.7023295510271832e-14
