Frozen SonoVue continuous sampler diameters; SI coupling engineering test

1000 atoms
1 atom types

-4.0000000000000003e-05 4.0000000000000003e-05 xlo xhi
-4.0000000000000003e-05 4.0000000000000003e-05 ylo yhi
-4.0000000000000003e-05 4.0000000000000003e-05 zlo zhi

Atoms # sphere

1 1 2.5316539630705636e-06 1000 -3.6000000000000001e-05 -3.6000000000000001e-05 -3.6000000000000001e-05
2 1 1.5658603755151572e-06 1000 -3.6000000000000001e-05 -3.6000000000000001e-05 -2.8000000000000003e-05
3 1 1.9102340532032774e-06 1000 -3.6000000000000001e-05 -3.6000000000000001e-05 -2.0000000000000005e-05
4 1 1.6558053464592922e-06 1000 -3.6000000000000001e-05 -3.6000000000000001e-05 -1.2000000000000004e-05
5 1 2.0575758614128358e-06 1000 -3.6000000000000001e-05 -3.6000000000000001e-05 -4.0000000000000024e-06
6 1 3.9834382964137001e-06 1000 -3.6000000000000001e-05 -3.6000000000000001e-05 3.9999999999999956e-06
7 1 3.2033595325556467e-06 1000 -3.6000000000000001e-05 -3.6000000000000001e-05 1.1999999999999994e-05
8 1 1.8674241170473475e-06 1000 -3.6000000000000001e-05 -3.6000000000000001e-05 1.9999999999999991e-05
9 1 1.9838955588885943e-06 1000 -3.6000000000000001e-05 -3.6000000000000001e-05 2.7999999999999996e-05
10 1 1.4930108569212954e-06 1000 -3.6000000000000001e-05 -3.6000000000000001e-05 3.5999999999999987e-05
11 1 1.7365375206563586e-06 1000 -3.6000000000000001e-05 -2.8000000000000003e-05 -3.6000000000000001e-05
12 1 2.2484442923034369e-06 1000 -3.6000000000000001e-05 -2.8000000000000003e-05 -2.8000000000000003e-05
13 1 1.7384755428131272e-06 1000 -3.6000000000000001e-05 -2.8000000000000003e-05 -2.0000000000000005e-05
14 1 1.3902797501725369e-06 1000 -3.6000000000000001e-05 -2.8000000000000003e-05 -1.2000000000000004e-05
15 1 2.168807157122433e-06 1000 -3.6000000000000001e-05 -2.8000000000000003e-05 -4.0000000000000024e-06
16 1 1.560297974505904e-06 1000 -3.6000000000000001e-05 -2.8000000000000003e-05 3.9999999999999956e-06
17 1 2.415382232611696e-06 1000 -3.6000000000000001e-05 -2.8000000000000003e-05 1.1999999999999994e-05
18 1 3.0403121621523933e-06 1000 -3.6000000000000001e-05 -2.8000000000000003e-05 1.9999999999999991e-05
19 1 1.8462133095744682e-06 1000 -3.6000000000000001e-05 -2.8000000000000003e-05 2.7999999999999996e-05
20 1 2.9988033468725901e-06 1000 -3.6000000000000001e-05 -2.8000000000000003e-05 3.5999999999999987e-05
21 1 2.0353281725534818e-06 1000 -3.6000000000000001e-05 -2.0000000000000005e-05 -3.6000000000000001e-05
22 1 3.0091326418678961e-06 1000 -3.6000000000000001e-05 -2.0000000000000005e-05 -2.8000000000000003e-05
23 1 2.7569272170038241e-06 1000 -3.6000000000000001e-05 -2.0000000000000005e-05 -2.0000000000000005e-05
24 1 1.7488201247201775e-06 1000 -3.6000000000000001e-05 -2.0000000000000005e-05 -1.2000000000000004e-05
25 1 3.6708626345171869e-06 1000 -3.6000000000000001e-05 -2.0000000000000005e-05 -4.0000000000000024e-06
26 1 2.4356738529529644e-06 1000 -3.6000000000000001e-05 -2.0000000000000005e-05 3.9999999999999956e-06
27 1 1.4529773289917308e-06 1000 -3.6000000000000001e-05 -2.0000000000000005e-05 1.1999999999999994e-05
28 1 1.8612603638641394e-06 1000 -3.6000000000000001e-05 -2.0000000000000005e-05 1.9999999999999991e-05
29 1 1.8538124403770304e-06 1000 -3.6000000000000001e-05 -2.0000000000000005e-05 2.7999999999999996e-05
30 1 1.3067896714224622e-06 1000 -3.6000000000000001e-05 -2.0000000000000005e-05 3.5999999999999987e-05
31 1 9.8853758056529803e-07 1000 -3.6000000000000001e-05 -1.2000000000000004e-05 -3.6000000000000001e-05
32 1 2.9334482034281859e-06 1000 -3.6000000000000001e-05 -1.2000000000000004e-05 -2.8000000000000003e-05
33 1 1.921253889157627e-06 1000 -3.6000000000000001e-05 -1.2000000000000004e-05 -2.0000000000000005e-05
34 1 2.4806041749071127e-06 1000 -3.6000000000000001e-05 -1.2000000000000004e-05 -1.2000000000000004e-05
35 1 2.8897552252547214e-06 1000 -3.6000000000000001e-05 -1.2000000000000004e-05 -4.0000000000000024e-06
36 1 1.480753558496519e-06 1000 -3.6000000000000001e-05 -1.2000000000000004e-05 3.9999999999999956e-06
37 1 1.838275071803949e-06 1000 -3.6000000000000001e-05 -1.2000000000000004e-05 1.1999999999999994e-05
38 1 1.1793280896969313e-06 1000 -3.6000000000000001e-05 -1.2000000000000004e-05 1.9999999999999991e-05
39 1 2.00944314690733e-06 1000 -3.6000000000000001e-05 -1.2000000000000004e-05 2.7999999999999996e-05
40 1 2.4544711173223787e-06 1000 -3.6000000000000001e-05 -1.2000000000000004e-05 3.5999999999999987e-05
41 1 1.5295905571135205e-06 1000 -3.6000000000000001e-05 -4.0000000000000024e-06 -3.6000000000000001e-05
42 1 3.1404422477514026e-06 1000 -3.6000000000000001e-05 -4.0000000000000024e-06 -2.8000000000000003e-05
43 1 1.738514601360805e-06 1000 -3.6000000000000001e-05 -4.0000000000000024e-06 -2.0000000000000005e-05
44 1 1.4543932123564363e-06 1000 -3.6000000000000001e-05 -4.0000000000000024e-06 -1.2000000000000004e-05
45 1 2.2155742104234287e-06 1000 -3.6000000000000001e-05 -4.0000000000000024e-06 -4.0000000000000024e-06
46 1 2.4500830610652638e-06 1000 -3.6000000000000001e-05 -4.0000000000000024e-06 3.9999999999999956e-06
47 1 2.1546849963153145e-06 1000 -3.6000000000000001e-05 -4.0000000000000024e-06 1.1999999999999994e-05
48 1 1.7799314675864528e-06 1000 -3.6000000000000001e-05 -4.0000000000000024e-06 1.9999999999999991e-05
49 1 2.1717811500020411e-06 1000 -3.6000000000000001e-05 -4.0000000000000024e-06 2.7999999999999996e-05
50 1 2.8501659728790174e-06 1000 -3.6000000000000001e-05 -4.0000000000000024e-06 3.5999999999999987e-05
51 1 1.5239561751527053e-06 1000 -3.6000000000000001e-05 3.9999999999999956e-06 -3.6000000000000001e-05
52 1 2.888839937477119e-06 1000 -3.6000000000000001e-05 3.9999999999999956e-06 -2.8000000000000003e-05
53 1 1.2333552060527399e-06 1000 -3.6000000000000001e-05 3.9999999999999956e-06 -2.0000000000000005e-05
54 1 1.9825743300062004e-06 1000 -3.6000000000000001e-05 3.9999999999999956e-06 -1.2000000000000004e-05
55 1 1.0173636179503471e-06 1000 -3.6000000000000001e-05 3.9999999999999956e-06 -4.0000000000000024e-06
56 1 1.5685202320673703e-06 1000 -3.6000000000000001e-05 3.9999999999999956e-06 3.9999999999999956e-06
57 1 1.7573838179574151e-06 1000 -3.6000000000000001e-05 3.9999999999999956e-06 1.1999999999999994e-05
58 1 2.1451485658430518e-06 1000 -3.6000000000000001e-05 3.9999999999999956e-06 1.9999999999999991e-05
59 1 2.3721711516621756e-06 1000 -3.6000000000000001e-05 3.9999999999999956e-06 2.7999999999999996e-05
60 1 1.4625310357684355e-06 1000 -3.6000000000000001e-05 3.9999999999999956e-06 3.5999999999999987e-05
61 1 1.1928422744233857e-06 1000 -3.6000000000000001e-05 1.1999999999999994e-05 -3.6000000000000001e-05
62 1 2.812989898449193e-06 1000 -3.6000000000000001e-05 1.1999999999999994e-05 -2.8000000000000003e-05
63 1 2.2139712321781337e-06 1000 -3.6000000000000001e-05 1.1999999999999994e-05 -2.0000000000000005e-05
64 1 3.0068932291967355e-06 1000 -3.6000000000000001e-05 1.1999999999999994e-05 -1.2000000000000004e-05
65 1 1.5180751390396209e-06 1000 -3.6000000000000001e-05 1.1999999999999994e-05 -4.0000000000000024e-06
66 1 2.1288791591253629e-06 1000 -3.6000000000000001e-05 1.1999999999999994e-05 3.9999999999999956e-06
67 1 3.5423575286716169e-06 1000 -3.6000000000000001e-05 1.1999999999999994e-05 1.1999999999999994e-05
68 1 2.1814856823734121e-06 1000 -3.6000000000000001e-05 1.1999999999999994e-05 1.9999999999999991e-05
69 1 3.5711859271487763e-06 1000 -3.6000000000000001e-05 1.1999999999999994e-05 2.7999999999999996e-05
70 1 1.5652299347446248e-06 1000 -3.6000000000000001e-05 1.1999999999999994e-05 3.5999999999999987e-05
71 1 2.5267774544697368e-06 1000 -3.6000000000000001e-05 1.9999999999999991e-05 -3.6000000000000001e-05
72 1 1.8861915876103843e-06 1000 -3.6000000000000001e-05 1.9999999999999991e-05 -2.8000000000000003e-05
73 1 1.5407852243331577e-06 1000 -3.6000000000000001e-05 1.9999999999999991e-05 -2.0000000000000005e-05
74 1 1.3961271313249609e-06 1000 -3.6000000000000001e-05 1.9999999999999991e-05 -1.2000000000000004e-05
75 1 1.5133308434406108e-06 1000 -3.6000000000000001e-05 1.9999999999999991e-05 -4.0000000000000024e-06
76 1 2.4113922857841744e-06 1000 -3.6000000000000001e-05 1.9999999999999991e-05 3.9999999999999956e-06
77 1 1.8368486259271223e-06 1000 -3.6000000000000001e-05 1.9999999999999991e-05 1.1999999999999994e-05
78 1 2.3407406403703541e-06 1000 -3.6000000000000001e-05 1.9999999999999991e-05 1.9999999999999991e-05
79 1 3.5532049687596403e-06 1000 -3.6000000000000001e-05 1.9999999999999991e-05 2.7999999999999996e-05
80 1 1.3746311392391866e-06 1000 -3.6000000000000001e-05 1.9999999999999991e-05 3.5999999999999987e-05
81 1 2.7063117774932587e-06 1000 -3.6000000000000001e-05 2.7999999999999996e-05 -3.6000000000000001e-05
82 1 1.4952839642907711e-06 1000 -3.6000000000000001e-05 2.7999999999999996e-05 -2.8000000000000003e-05
83 1 1.1347420564937832e-06 1000 -3.6000000000000001e-05 2.7999999999999996e-05 -2.0000000000000005e-05
84 1 2.404537071864627e-06 1000 -3.6000000000000001e-05 2.7999999999999996e-05 -1.2000000000000004e-05
85 1 1.6634270012735487e-06 1000 -3.6000000000000001e-05 2.7999999999999996e-05 -4.0000000000000024e-06
86 1 2.1481389251823572e-06 1000 -3.6000000000000001e-05 2.7999999999999996e-05 3.9999999999999956e-06
87 1 1.929205059167125e-06 1000 -3.6000000000000001e-05 2.7999999999999996e-05 1.1999999999999994e-05
88 1 1.0726348608432138e-06 1000 -3.6000000000000001e-05 2.7999999999999996e-05 1.9999999999999991e-05
89 1 1.7505161188047914e-06 1000 -3.6000000000000001e-05 2.7999999999999996e-05 2.7999999999999996e-05
90 1 1.71394917242544e-06 1000 -3.6000000000000001e-05 2.7999999999999996e-05 3.5999999999999987e-05
91 1 2.5440698738770457e-06 1000 -3.6000000000000001e-05 3.5999999999999987e-05 -3.6000000000000001e-05
92 1 2.0005875535290661e-06 1000 -3.6000000000000001e-05 3.5999999999999987e-05 -2.8000000000000003e-05
93 1 1.7365787341756282e-06 1000 -3.6000000000000001e-05 3.5999999999999987e-05 -2.0000000000000005e-05
94 1 1.6846793412667079e-06 1000 -3.6000000000000001e-05 3.5999999999999987e-05 -1.2000000000000004e-05
95 1 1.5736670924019422e-06 1000 -3.6000000000000001e-05 3.5999999999999987e-05 -4.0000000000000024e-06
96 1 1.3248250609402746e-06 1000 -3.6000000000000001e-05 3.5999999999999987e-05 3.9999999999999956e-06
97 1 2.0478320756461223e-06 1000 -3.6000000000000001e-05 3.5999999999999987e-05 1.1999999999999994e-05
98 1 2.8576129743012729e-06 1000 -3.6000000000000001e-05 3.5999999999999987e-05 1.9999999999999991e-05
99 1 1.3822872660854447e-06 1000 -3.6000000000000001e-05 3.5999999999999987e-05 2.7999999999999996e-05
100 1 3.2384080310726104e-06 1000 -3.6000000000000001e-05 3.5999999999999987e-05 3.5999999999999987e-05
101 1 2.2822704336011917e-06 1000 -2.8000000000000003e-05 -3.6000000000000001e-05 -3.6000000000000001e-05
102 1 2.2568605441711303e-06 1000 -2.8000000000000003e-05 -3.6000000000000001e-05 -2.8000000000000003e-05
103 1 2.2472541203189021e-06 1000 -2.8000000000000003e-05 -3.6000000000000001e-05 -2.0000000000000005e-05
104 1 2.6434115504026178e-06 1000 -2.8000000000000003e-05 -3.6000000000000001e-05 -1.2000000000000004e-05
105 1 1.7254109923689289e-06 1000 -2.8000000000000003e-05 -3.6000000000000001e-05 -4.0000000000000024e-06
106 1 1.7798342765228924e-06 1000 -2.8000000000000003e-05 -3.6000000000000001e-05 3.9999999999999956e-06
107 1 1.9563607103590048e-06 1000 -2.8000000000000003e-05 -3.6000000000000001e-05 1.1999999999999994e-05
108 1 2.605045582563822e-06 1000 -2.8000000000000003e-05 -3.6000000000000001e-05 1.9999999999999991e-05
109 1 1.8819761638381886e-06 1000 -2.8000000000000003e-05 -3.6000000000000001e-05 2.7999999999999996e-05
110 1 1.6805823455654924e-06 1000 -2.8000000000000003e-05 -3.6000000000000001e-05 3.5999999999999987e-05
111 1 2.3809329366643677e-06 1000 -2.8000000000000003e-05 -2.8000000000000003e-05 -3.6000000000000001e-05
112 1 2.91201644438243e-06 1000 -2.8000000000000003e-05 -2.8000000000000003e-05 -2.8000000000000003e-05
113 1 2.0266708874042625e-06 1000 -2.8000000000000003e-05 -2.8000000000000003e-05 -2.0000000000000005e-05
114 1 1.3734593630458104e-06 1000 -2.8000000000000003e-05 -2.8000000000000003e-05 -1.2000000000000004e-05
115 1 1.437084087548033e-06 1000 -2.8000000000000003e-05 -2.8000000000000003e-05 -4.0000000000000024e-06
116 1 4.0387418299309832e-06 1000 -2.8000000000000003e-05 -2.8000000000000003e-05 3.9999999999999956e-06
117 1 1.9243790731250478e-06 1000 -2.8000000000000003e-05 -2.8000000000000003e-05 1.1999999999999994e-05
118 1 1.2399864051405386e-06 1000 -2.8000000000000003e-05 -2.8000000000000003e-05 1.9999999999999991e-05
119 1 2.2438279472175594e-06 1000 -2.8000000000000003e-05 -2.8000000000000003e-05 2.7999999999999996e-05
120 1 1.7626926414621109e-06 1000 -2.8000000000000003e-05 -2.8000000000000003e-05 3.5999999999999987e-05
121 1 2.3246431541391542e-06 1000 -2.8000000000000003e-05 -2.0000000000000005e-05 -3.6000000000000001e-05
122 1 1.8430123958975612e-06 1000 -2.8000000000000003e-05 -2.0000000000000005e-05 -2.8000000000000003e-05
123 1 2.5599579439528795e-06 1000 -2.8000000000000003e-05 -2.0000000000000005e-05 -2.0000000000000005e-05
124 1 1.8594633369482586e-06 1000 -2.8000000000000003e-05 -2.0000000000000005e-05 -1.2000000000000004e-05
125 1 3.1888103358810381e-06 1000 -2.8000000000000003e-05 -2.0000000000000005e-05 -4.0000000000000024e-06
126 1 2.7393393577563023e-06 1000 -2.8000000000000003e-05 -2.0000000000000005e-05 3.9999999999999956e-06
127 1 1.930348052153915e-06 1000 -2.8000000000000003e-05 -2.0000000000000005e-05 1.1999999999999994e-05
128 1 1.3828601332071697e-06 1000 -2.8000000000000003e-05 -2.0000000000000005e-05 1.9999999999999991e-05
129 1 2.7882964138750448e-06 1000 -2.8000000000000003e-05 -2.0000000000000005e-05 2.7999999999999996e-05
130 1 1.6930766829742917e-06 1000 -2.8000000000000003e-05 -2.0000000000000005e-05 3.5999999999999987e-05
131 1 1.3803043622310728e-06 1000 -2.8000000000000003e-05 -1.2000000000000004e-05 -3.6000000000000001e-05
132 1 9.9618244193068405e-07 1000 -2.8000000000000003e-05 -1.2000000000000004e-05 -2.8000000000000003e-05
133 1 2.8772064960175277e-06 1000 -2.8000000000000003e-05 -1.2000000000000004e-05 -2.0000000000000005e-05
134 1 1.4008366097465375e-06 1000 -2.8000000000000003e-05 -1.2000000000000004e-05 -1.2000000000000004e-05
135 1 2.7466913133725531e-06 1000 -2.8000000000000003e-05 -1.2000000000000004e-05 -4.0000000000000024e-06
136 1 1.8838824518007823e-06 1000 -2.8000000000000003e-05 -1.2000000000000004e-05 3.9999999999999956e-06
137 1 1.9053593732699798e-06 1000 -2.8000000000000003e-05 -1.2000000000000004e-05 1.1999999999999994e-05
138 1 1.975434065983146e-06 1000 -2.8000000000000003e-05 -1.2000000000000004e-05 1.9999999999999991e-05
139 1 1.3008952011602243e-06 1000 -2.8000000000000003e-05 -1.2000000000000004e-05 2.7999999999999996e-05
140 1 1.9217397828800578e-06 1000 -2.8000000000000003e-05 -1.2000000000000004e-05 3.5999999999999987e-05
141 1 3.0179666794695575e-06 1000 -2.8000000000000003e-05 -4.0000000000000024e-06 -3.6000000000000001e-05
142 1 1.3944586969693619e-06 1000 -2.8000000000000003e-05 -4.0000000000000024e-06 -2.8000000000000003e-05
143 1 1.4218844400998722e-06 1000 -2.8000000000000003e-05 -4.0000000000000024e-06 -2.0000000000000005e-05
144 1 1.8928723930716906e-06 1000 -2.8000000000000003e-05 -4.0000000000000024e-06 -1.2000000000000004e-05
145 1 2.6872115092104047e-06 1000 -2.8000000000000003e-05 -4.0000000000000024e-06 -4.0000000000000024e-06
146 1 2.4761274805115385e-06 1000 -2.8000000000000003e-05 -4.0000000000000024e-06 3.9999999999999956e-06
147 1 2.5316218109319024e-06 1000 -2.8000000000000003e-05 -4.0000000000000024e-06 1.1999999999999994e-05
148 1 1.9489923895895351e-06 1000 -2.8000000000000003e-05 -4.0000000000000024e-06 1.9999999999999991e-05
149 1 1.7266431691383123e-06 1000 -2.8000000000000003e-05 -4.0000000000000024e-06 2.7999999999999996e-05
150 1 1.3616442605217198e-06 1000 -2.8000000000000003e-05 -4.0000000000000024e-06 3.5999999999999987e-05
151 1 2.0840815420855989e-06 1000 -2.8000000000000003e-05 3.9999999999999956e-06 -3.6000000000000001e-05
152 1 2.70720904814492e-06 1000 -2.8000000000000003e-05 3.9999999999999956e-06 -2.8000000000000003e-05
153 1 2.6334706346576561e-06 1000 -2.8000000000000003e-05 3.9999999999999956e-06 -2.0000000000000005e-05
154 1 1.7233684640790553e-06 1000 -2.8000000000000003e-05 3.9999999999999956e-06 -1.2000000000000004e-05
155 1 1.6014687584249535e-06 1000 -2.8000000000000003e-05 3.9999999999999956e-06 -4.0000000000000024e-06
156 1 3.9867137581955854e-06 1000 -2.8000000000000003e-05 3.9999999999999956e-06 3.9999999999999956e-06
157 1 2.0999530080129359e-06 1000 -2.8000000000000003e-05 3.9999999999999956e-06 1.1999999999999994e-05
158 1 2.8949693893433766e-06 1000 -2.8000000000000003e-05 3.9999999999999956e-06 1.9999999999999991e-05
159 1 2.1898459754910616e-06 1000 -2.8000000000000003e-05 3.9999999999999956e-06 2.7999999999999996e-05
160 1 1.850665169239829e-06 1000 -2.8000000000000003e-05 3.9999999999999956e-06 3.5999999999999987e-05
161 1 3.4115617139367397e-06 1000 -2.8000000000000003e-05 1.1999999999999994e-05 -3.6000000000000001e-05
162 1 2.3746015608998737e-06 1000 -2.8000000000000003e-05 1.1999999999999994e-05 -2.8000000000000003e-05
163 1 1.9883637338311137e-06 1000 -2.8000000000000003e-05 1.1999999999999994e-05 -2.0000000000000005e-05
164 1 1.7600160173060538e-06 1000 -2.8000000000000003e-05 1.1999999999999994e-05 -1.2000000000000004e-05
165 1 1.5068939881683846e-06 1000 -2.8000000000000003e-05 1.1999999999999994e-05 -4.0000000000000024e-06
166 1 1.6620740173303291e-06 1000 -2.8000000000000003e-05 1.1999999999999994e-05 3.9999999999999956e-06
167 1 1.9301280909204775e-06 1000 -2.8000000000000003e-05 1.1999999999999994e-05 1.1999999999999994e-05
168 1 1.1561316764210571e-06 1000 -2.8000000000000003e-05 1.1999999999999994e-05 1.9999999999999991e-05
169 1 1.9310860903442433e-06 1000 -2.8000000000000003e-05 1.1999999999999994e-05 2.7999999999999996e-05
170 1 1.5225742370058702e-06 1000 -2.8000000000000003e-05 1.1999999999999994e-05 3.5999999999999987e-05
171 1 3.2054625859836748e-06 1000 -2.8000000000000003e-05 1.9999999999999991e-05 -3.6000000000000001e-05
172 1 1.432193866509741e-06 1000 -2.8000000000000003e-05 1.9999999999999991e-05 -2.8000000000000003e-05
173 1 2.2375882491690953e-06 1000 -2.8000000000000003e-05 1.9999999999999991e-05 -2.0000000000000005e-05
174 1 1.5407706171975308e-06 1000 -2.8000000000000003e-05 1.9999999999999991e-05 -1.2000000000000004e-05
175 1 2.1960041401523457e-06 1000 -2.8000000000000003e-05 1.9999999999999991e-05 -4.0000000000000024e-06
176 1 1.464120774740248e-06 1000 -2.8000000000000003e-05 1.9999999999999991e-05 3.9999999999999956e-06
177 1 1.9330139078731357e-06 1000 -2.8000000000000003e-05 1.9999999999999991e-05 1.1999999999999994e-05
178 1 1.9855045097205159e-06 1000 -2.8000000000000003e-05 1.9999999999999991e-05 1.9999999999999991e-05
179 1 1.8430704853097082e-06 1000 -2.8000000000000003e-05 1.9999999999999991e-05 2.7999999999999996e-05
180 1 3.067190919350793e-06 1000 -2.8000000000000003e-05 1.9999999999999991e-05 3.5999999999999987e-05
181 1 2.2144882072964876e-06 1000 -2.8000000000000003e-05 2.7999999999999996e-05 -3.6000000000000001e-05
182 1 2.340372731049692e-06 1000 -2.8000000000000003e-05 2.7999999999999996e-05 -2.8000000000000003e-05
183 1 1.656723623660112e-06 1000 -2.8000000000000003e-05 2.7999999999999996e-05 -2.0000000000000005e-05
184 1 2.9625915248179081e-06 1000 -2.8000000000000003e-05 2.7999999999999996e-05 -1.2000000000000004e-05
185 1 1.7848440593791744e-06 1000 -2.8000000000000003e-05 2.7999999999999996e-05 -4.0000000000000024e-06
186 1 2.4962489625085322e-06 1000 -2.8000000000000003e-05 2.7999999999999996e-05 3.9999999999999956e-06
187 1 1.8040808174514906e-06 1000 -2.8000000000000003e-05 2.7999999999999996e-05 1.1999999999999994e-05
188 1 1.187738070212102e-06 1000 -2.8000000000000003e-05 2.7999999999999996e-05 1.9999999999999991e-05
189 1 1.50939409614961e-06 1000 -2.8000000000000003e-05 2.7999999999999996e-05 2.7999999999999996e-05
190 1 1.5127302442766291e-06 1000 -2.8000000000000003e-05 2.7999999999999996e-05 3.5999999999999987e-05
191 1 1.5482623993639554e-06 1000 -2.8000000000000003e-05 3.5999999999999987e-05 -3.6000000000000001e-05
192 1 1.4923248989677294e-06 1000 -2.8000000000000003e-05 3.5999999999999987e-05 -2.8000000000000003e-05
193 1 3.3860138330358345e-06 1000 -2.8000000000000003e-05 3.5999999999999987e-05 -2.0000000000000005e-05
194 1 2.0249033424658977e-06 1000 -2.8000000000000003e-05 3.5999999999999987e-05 -1.2000000000000004e-05
195 1 2.7630851619506731e-06 1000 -2.8000000000000003e-05 3.5999999999999987e-05 -4.0000000000000024e-06
196 1 2.4374620470294924e-06 1000 -2.8000000000000003e-05 3.5999999999999987e-05 3.9999999999999956e-06
197 1 2.103186358090413e-06 1000 -2.8000000000000003e-05 3.5999999999999987e-05 1.1999999999999994e-05
198 1 1.2681205710378644e-06 1000 -2.8000000000000003e-05 3.5999999999999987e-05 1.9999999999999991e-05
199 1 2.335567772001568e-06 1000 -2.8000000000000003e-05 3.5999999999999987e-05 2.7999999999999996e-05
200 1 2.5638515376715527e-06 1000 -2.8000000000000003e-05 3.5999999999999987e-05 3.5999999999999987e-05
201 1 1.684184314716683e-06 1000 -2.0000000000000005e-05 -3.6000000000000001e-05 -3.6000000000000001e-05
202 1 1.3145704292225302e-06 1000 -2.0000000000000005e-05 -3.6000000000000001e-05 -2.8000000000000003e-05
203 1 1.7589035100661431e-06 1000 -2.0000000000000005e-05 -3.6000000000000001e-05 -2.0000000000000005e-05
204 1 2.6136527341548363e-06 1000 -2.0000000000000005e-05 -3.6000000000000001e-05 -1.2000000000000004e-05
205 1 1.4000273666894032e-06 1000 -2.0000000000000005e-05 -3.6000000000000001e-05 -4.0000000000000024e-06
206 1 2.8989593707062352e-06 1000 -2.0000000000000005e-05 -3.6000000000000001e-05 3.9999999999999956e-06
207 1 1.4572934768796669e-06 1000 -2.0000000000000005e-05 -3.6000000000000001e-05 1.1999999999999994e-05
208 1 1.7714715892032789e-06 1000 -2.0000000000000005e-05 -3.6000000000000001e-05 1.9999999999999991e-05
209 1 1.7362917114004394e-06 1000 -2.0000000000000005e-05 -3.6000000000000001e-05 2.7999999999999996e-05
210 1 1.4859180688349792e-06 1000 -2.0000000000000005e-05 -3.6000000000000001e-05 3.5999999999999987e-05
211 1 1.9659339848058923e-06 1000 -2.0000000000000005e-05 -2.8000000000000003e-05 -3.6000000000000001e-05
212 1 1.6233553929203828e-06 1000 -2.0000000000000005e-05 -2.8000000000000003e-05 -2.8000000000000003e-05
213 1 1.8320822964972502e-06 1000 -2.0000000000000005e-05 -2.8000000000000003e-05 -2.0000000000000005e-05
214 1 1.5377539281021601e-06 1000 -2.0000000000000005e-05 -2.8000000000000003e-05 -1.2000000000000004e-05
215 1 2.0554941610387428e-06 1000 -2.0000000000000005e-05 -2.8000000000000003e-05 -4.0000000000000024e-06
216 1 1.1424444852468677e-06 1000 -2.0000000000000005e-05 -2.8000000000000003e-05 3.9999999999999956e-06
217 1 1.6576878755067417e-06 1000 -2.0000000000000005e-05 -2.8000000000000003e-05 1.1999999999999994e-05
218 1 2.4007478269109507e-06 1000 -2.0000000000000005e-05 -2.8000000000000003e-05 1.9999999999999991e-05
219 1 1.7056914224326723e-06 1000 -2.0000000000000005e-05 -2.8000000000000003e-05 2.7999999999999996e-05
220 1 1.8363080538672211e-06 1000 -2.0000000000000005e-05 -2.8000000000000003e-05 3.5999999999999987e-05
221 1 2.0044134675096115e-06 1000 -2.0000000000000005e-05 -2.0000000000000005e-05 -3.6000000000000001e-05
222 1 2.3880936488965423e-06 1000 -2.0000000000000005e-05 -2.0000000000000005e-05 -2.8000000000000003e-05
223 1 2.3271575187746686e-06 1000 -2.0000000000000005e-05 -2.0000000000000005e-05 -2.0000000000000005e-05
224 1 3.2245826993032806e-06 1000 -2.0000000000000005e-05 -2.0000000000000005e-05 -1.2000000000000004e-05
225 1 2.9305750181797126e-06 1000 -2.0000000000000005e-05 -2.0000000000000005e-05 -4.0000000000000024e-06
226 1 2.5862393685947581e-06 1000 -2.0000000000000005e-05 -2.0000000000000005e-05 3.9999999999999956e-06
227 1 1.0033444592339901e-06 1000 -2.0000000000000005e-05 -2.0000000000000005e-05 1.1999999999999994e-05
228 1 2.5639716851125029e-06 1000 -2.0000000000000005e-05 -2.0000000000000005e-05 1.9999999999999991e-05
229 1 2.1552567994837676e-06 1000 -2.0000000000000005e-05 -2.0000000000000005e-05 2.7999999999999996e-05
230 1 2.2715252419271434e-06 1000 -2.0000000000000005e-05 -2.0000000000000005e-05 3.5999999999999987e-05
231 1 1.9147880723031372e-06 1000 -2.0000000000000005e-05 -1.2000000000000004e-05 -3.6000000000000001e-05
232 1 1.8224262876248222e-06 1000 -2.0000000000000005e-05 -1.2000000000000004e-05 -2.8000000000000003e-05
233 1 1.8994207557463245e-06 1000 -2.0000000000000005e-05 -1.2000000000000004e-05 -2.0000000000000005e-05
234 1 1.4661730275436644e-06 1000 -2.0000000000000005e-05 -1.2000000000000004e-05 -1.2000000000000004e-05
235 1 1.3780327429378687e-06 1000 -2.0000000000000005e-05 -1.2000000000000004e-05 -4.0000000000000024e-06
236 1 2.1216646523456674e-06 1000 -2.0000000000000005e-05 -1.2000000000000004e-05 3.9999999999999956e-06
237 1 1.4744114555165626e-06 1000 -2.0000000000000005e-05 -1.2000000000000004e-05 1.1999999999999994e-05
238 1 1.7244551409863754e-06 1000 -2.0000000000000005e-05 -1.2000000000000004e-05 1.9999999999999991e-05
239 1 2.1974530840274483e-06 1000 -2.0000000000000005e-05 -1.2000000000000004e-05 2.7999999999999996e-05
240 1 1.5604740085308877e-06 1000 -2.0000000000000005e-05 -1.2000000000000004e-05 3.5999999999999987e-05
241 1 2.7102510527862338e-06 1000 -2.0000000000000005e-05 -4.0000000000000024e-06 -3.6000000000000001e-05
242 1 1.6337838775815938e-06 1000 -2.0000000000000005e-05 -4.0000000000000024e-06 -2.8000000000000003e-05
243 1 2.5336600416959661e-06 1000 -2.0000000000000005e-05 -4.0000000000000024e-06 -2.0000000000000005e-05
244 1 2.3467762133919261e-06 1000 -2.0000000000000005e-05 -4.0000000000000024e-06 -1.2000000000000004e-05
245 1 3.2054300505966676e-06 1000 -2.0000000000000005e-05 -4.0000000000000024e-06 -4.0000000000000024e-06
246 1 2.0698006428112399e-06 1000 -2.0000000000000005e-05 -4.0000000000000024e-06 3.9999999999999956e-06
247 1 1.9438396121111248e-06 1000 -2.0000000000000005e-05 -4.0000000000000024e-06 1.1999999999999994e-05
248 1 1.4139711318112199e-06 1000 -2.0000000000000005e-05 -4.0000000000000024e-06 1.9999999999999991e-05
249 1 2.1172008338437018e-06 1000 -2.0000000000000005e-05 -4.0000000000000024e-06 2.7999999999999996e-05
250 1 2.5161471505851364e-06 1000 -2.0000000000000005e-05 -4.0000000000000024e-06 3.5999999999999987e-05
251 1 2.3703231334095082e-06 1000 -2.0000000000000005e-05 3.9999999999999956e-06 -3.6000000000000001e-05
252 1 1.6038617643138886e-06 1000 -2.0000000000000005e-05 3.9999999999999956e-06 -2.8000000000000003e-05
253 1 2.5100066208972916e-06 1000 -2.0000000000000005e-05 3.9999999999999956e-06 -2.0000000000000005e-05
254 1 2.9443003034977465e-06 1000 -2.0000000000000005e-05 3.9999999999999956e-06 -1.2000000000000004e-05
255 1 2.4261951871734124e-06 1000 -2.0000000000000005e-05 3.9999999999999956e-06 -4.0000000000000024e-06
256 1 2.4647557712457919e-06 1000 -2.0000000000000005e-05 3.9999999999999956e-06 3.9999999999999956e-06
257 1 1.5564471486356738e-06 1000 -2.0000000000000005e-05 3.9999999999999956e-06 1.1999999999999994e-05
258 1 1.9004604733710004e-06 1000 -2.0000000000000005e-05 3.9999999999999956e-06 1.9999999999999991e-05
259 1 2.942877074054905e-06 1000 -2.0000000000000005e-05 3.9999999999999956e-06 2.7999999999999996e-05
260 1 1.7984878291299351e-06 1000 -2.0000000000000005e-05 3.9999999999999956e-06 3.5999999999999987e-05
261 1 2.3778674598506688e-06 1000 -2.0000000000000005e-05 1.1999999999999994e-05 -3.6000000000000001e-05
262 1 1.711560752703093e-06 1000 -2.0000000000000005e-05 1.1999999999999994e-05 -2.8000000000000003e-05
263 1 3.3888413992762594e-06 1000 -2.0000000000000005e-05 1.1999999999999994e-05 -2.0000000000000005e-05
264 1 2.1435321909616335e-06 1000 -2.0000000000000005e-05 1.1999999999999994e-05 -1.2000000000000004e-05
265 1 1.8857323059761803e-06 1000 -2.0000000000000005e-05 1.1999999999999994e-05 -4.0000000000000024e-06
266 1 1.3853088668276235e-06 1000 -2.0000000000000005e-05 1.1999999999999994e-05 3.9999999999999956e-06
267 1 1.8609559633181084e-06 1000 -2.0000000000000005e-05 1.1999999999999994e-05 1.1999999999999994e-05
268 1 1.6380139864967574e-06 1000 -2.0000000000000005e-05 1.1999999999999994e-05 1.9999999999999991e-05
269 1 1.9421532402987202e-06 1000 -2.0000000000000005e-05 1.1999999999999994e-05 2.7999999999999996e-05
270 1 1.3700471247892596e-06 1000 -2.0000000000000005e-05 1.1999999999999994e-05 3.5999999999999987e-05
271 1 1.2837925589176755e-06 1000 -2.0000000000000005e-05 1.9999999999999991e-05 -3.6000000000000001e-05
272 1 1.9191878518754359e-06 1000 -2.0000000000000005e-05 1.9999999999999991e-05 -2.8000000000000003e-05
273 1 1.4763857321819669e-06 1000 -2.0000000000000005e-05 1.9999999999999991e-05 -2.0000000000000005e-05
274 1 2.1988623261056205e-06 1000 -2.0000000000000005e-05 1.9999999999999991e-05 -1.2000000000000004e-05
275 1 1.9270980611117569e-06 1000 -2.0000000000000005e-05 1.9999999999999991e-05 -4.0000000000000024e-06
276 1 1.5857063308275241e-06 1000 -2.0000000000000005e-05 1.9999999999999991e-05 3.9999999999999956e-06
277 1 2.0305759429939164e-06 1000 -2.0000000000000005e-05 1.9999999999999991e-05 1.1999999999999994e-05
278 1 1.6357424943059064e-06 1000 -2.0000000000000005e-05 1.9999999999999991e-05 1.9999999999999991e-05
279 1 2.063598636780331e-06 1000 -2.0000000000000005e-05 1.9999999999999991e-05 2.7999999999999996e-05
280 1 2.3447609328804786e-06 1000 -2.0000000000000005e-05 1.9999999999999991e-05 3.5999999999999987e-05
281 1 1.8734553523293141e-06 1000 -2.0000000000000005e-05 2.7999999999999996e-05 -3.6000000000000001e-05
282 1 1.8056035454630799e-06 1000 -2.0000000000000005e-05 2.7999999999999996e-05 -2.8000000000000003e-05
283 1 1.8419561756350634e-06 1000 -2.0000000000000005e-05 2.7999999999999996e-05 -2.0000000000000005e-05
284 1 1.5659017634618765e-06 1000 -2.0000000000000005e-05 2.7999999999999996e-05 -1.2000000000000004e-05
285 1 1.831768538391642e-06 1000 -2.0000000000000005e-05 2.7999999999999996e-05 -4.0000000000000024e-06
286 1 2.5635915658932324e-06 1000 -2.0000000000000005e-05 2.7999999999999996e-05 3.9999999999999956e-06
287 1 3.0541668884387991e-06 1000 -2.0000000000000005e-05 2.7999999999999996e-05 1.1999999999999994e-05
288 1 2.8598067702730236e-06 1000 -2.0000000000000005e-05 2.7999999999999996e-05 1.9999999999999991e-05
289 1 1.2228857796142449e-06 1000 -2.0000000000000005e-05 2.7999999999999996e-05 2.7999999999999996e-05
290 1 2.5563900107555989e-06 1000 -2.0000000000000005e-05 2.7999999999999996e-05 3.5999999999999987e-05
291 1 1.3584934338857322e-06 1000 -2.0000000000000005e-05 3.5999999999999987e-05 -3.6000000000000001e-05
292 1 2.2555256023484577e-06 1000 -2.0000000000000005e-05 3.5999999999999987e-05 -2.8000000000000003e-05
293 1 1.2589280621598854e-06 1000 -2.0000000000000005e-05 3.5999999999999987e-05 -2.0000000000000005e-05
294 1 1.6428249561697959e-06 1000 -2.0000000000000005e-05 3.5999999999999987e-05 -1.2000000000000004e-05
295 1 1.8891687775078631e-06 1000 -2.0000000000000005e-05 3.5999999999999987e-05 -4.0000000000000024e-06
296 1 2.5890220259766077e-06 1000 -2.0000000000000005e-05 3.5999999999999987e-05 3.9999999999999956e-06
297 1 1.6184139569137335e-06 1000 -2.0000000000000005e-05 3.5999999999999987e-05 1.1999999999999994e-05
298 1 2.0413326466638505e-06 1000 -2.0000000000000005e-05 3.5999999999999987e-05 1.9999999999999991e-05
299 1 1.5137764697186089e-06 1000 -2.0000000000000005e-05 3.5999999999999987e-05 2.7999999999999996e-05
300 1 1.7954482787233905e-06 1000 -2.0000000000000005e-05 3.5999999999999987e-05 3.5999999999999987e-05
301 1 1.0070906403638252e-06 1000 -1.2000000000000004e-05 -3.6000000000000001e-05 -3.6000000000000001e-05
302 1 2.0635903976861118e-06 1000 -1.2000000000000004e-05 -3.6000000000000001e-05 -2.8000000000000003e-05
303 1 2.0584918472338612e-06 1000 -1.2000000000000004e-05 -3.6000000000000001e-05 -2.0000000000000005e-05
304 1 2.1867440692171744e-06 1000 -1.2000000000000004e-05 -3.6000000000000001e-05 -1.2000000000000004e-05
305 1 1.3746564077134079e-06 1000 -1.2000000000000004e-05 -3.6000000000000001e-05 -4.0000000000000024e-06
306 1 2.2561856751947201e-06 1000 -1.2000000000000004e-05 -3.6000000000000001e-05 3.9999999999999956e-06
307 1 1.7193480167903564e-06 1000 -1.2000000000000004e-05 -3.6000000000000001e-05 1.1999999999999994e-05
308 1 2.9110100608091916e-06 1000 -1.2000000000000004e-05 -3.6000000000000001e-05 1.9999999999999991e-05
309 1 1.3494721458272867e-06 1000 -1.2000000000000004e-05 -3.6000000000000001e-05 2.7999999999999996e-05
310 1 1.8943781737407656e-06 1000 -1.2000000000000004e-05 -3.6000000000000001e-05 3.5999999999999987e-05
311 1 9.7387225863275845e-07 1000 -1.2000000000000004e-05 -2.8000000000000003e-05 -3.6000000000000001e-05
312 1 1.673182736746106e-06 1000 -1.2000000000000004e-05 -2.8000000000000003e-05 -2.8000000000000003e-05
313 1 1.685163406884392e-06 1000 -1.2000000000000004e-05 -2.8000000000000003e-05 -2.0000000000000005e-05
314 1 1.0876114413131649e-06 1000 -1.2000000000000004e-05 -2.8000000000000003e-05 -1.2000000000000004e-05
315 1 2.0474567629923295e-06 1000 -1.2000000000000004e-05 -2.8000000000000003e-05 -4.0000000000000024e-06
316 1 1.1859735660483664e-06 1000 -1.2000000000000004e-05 -2.8000000000000003e-05 3.9999999999999956e-06
317 1 3.2478648095325834e-06 1000 -1.2000000000000004e-05 -2.8000000000000003e-05 1.1999999999999994e-05
318 1 2.1369444366456615e-06 1000 -1.2000000000000004e-05 -2.8000000000000003e-05 1.9999999999999991e-05
319 1 3.9755829581010255e-06 1000 -1.2000000000000004e-05 -2.8000000000000003e-05 2.7999999999999996e-05
320 1 1.4862520545564953e-06 1000 -1.2000000000000004e-05 -2.8000000000000003e-05 3.5999999999999987e-05
321 1 1.6484925130146044e-06 1000 -1.2000000000000004e-05 -2.0000000000000005e-05 -3.6000000000000001e-05
322 1 2.9486327035754951e-06 1000 -1.2000000000000004e-05 -2.0000000000000005e-05 -2.8000000000000003e-05
323 1 2.3462368620343152e-06 1000 -1.2000000000000004e-05 -2.0000000000000005e-05 -2.0000000000000005e-05
324 1 2.2251111330776883e-06 1000 -1.2000000000000004e-05 -2.0000000000000005e-05 -1.2000000000000004e-05
325 1 1.6921932219902463e-06 1000 -1.2000000000000004e-05 -2.0000000000000005e-05 -4.0000000000000024e-06
326 1 3.000797836252453e-06 1000 -1.2000000000000004e-05 -2.0000000000000005e-05 3.9999999999999956e-06
327 1 1.0616626387090406e-06 1000 -1.2000000000000004e-05 -2.0000000000000005e-05 1.1999999999999994e-05
328 1 1.5078209314182071e-06 1000 -1.2000000000000004e-05 -2.0000000000000005e-05 1.9999999999999991e-05
329 1 2.4632992278562911e-06 1000 -1.2000000000000004e-05 -2.0000000000000005e-05 2.7999999999999996e-05
330 1 1.9477208837614386e-06 1000 -1.2000000000000004e-05 -2.0000000000000005e-05 3.5999999999999987e-05
331 1 3.4156062950069745e-06 1000 -1.2000000000000004e-05 -1.2000000000000004e-05 -3.6000000000000001e-05
332 1 1.7676952736563742e-06 1000 -1.2000000000000004e-05 -1.2000000000000004e-05 -2.8000000000000003e-05
333 1 1.9901336036037895e-06 1000 -1.2000000000000004e-05 -1.2000000000000004e-05 -2.0000000000000005e-05
334 1 1.8435243134679379e-06 1000 -1.2000000000000004e-05 -1.2000000000000004e-05 -1.2000000000000004e-05
335 1 3.0293204169203651e-06 1000 -1.2000000000000004e-05 -1.2000000000000004e-05 -4.0000000000000024e-06
336 1 2.1289398088703319e-06 1000 -1.2000000000000004e-05 -1.2000000000000004e-05 3.9999999999999956e-06
337 1 1.834665988192079e-06 1000 -1.2000000000000004e-05 -1.2000000000000004e-05 1.1999999999999994e-05
338 1 2.0608522020483839e-06 1000 -1.2000000000000004e-05 -1.2000000000000004e-05 1.9999999999999991e-05
339 1 2.549368556614414e-06 1000 -1.2000000000000004e-05 -1.2000000000000004e-05 2.7999999999999996e-05
340 1 1.6060895203143967e-06 1000 -1.2000000000000004e-05 -1.2000000000000004e-05 3.5999999999999987e-05
341 1 1.5890835507480555e-06 1000 -1.2000000000000004e-05 -4.0000000000000024e-06 -3.6000000000000001e-05
342 1 3.1941949282148157e-06 1000 -1.2000000000000004e-05 -4.0000000000000024e-06 -2.8000000000000003e-05
343 1 3.2806350627114623e-06 1000 -1.2000000000000004e-05 -4.0000000000000024e-06 -2.0000000000000005e-05
344 1 2.0236876824110263e-06 1000 -1.2000000000000004e-05 -4.0000000000000024e-06 -1.2000000000000004e-05
345 1 3.0334650386596983e-06 1000 -1.2000000000000004e-05 -4.0000000000000024e-06 -4.0000000000000024e-06
346 1 2.8060311440826054e-06 1000 -1.2000000000000004e-05 -4.0000000000000024e-06 3.9999999999999956e-06
347 1 1.4222425301403038e-06 1000 -1.2000000000000004e-05 -4.0000000000000024e-06 1.1999999999999994e-05
348 1 2.1497797120010446e-06 1000 -1.2000000000000004e-05 -4.0000000000000024e-06 1.9999999999999991e-05
349 1 1.721075231370374e-06 1000 -1.2000000000000004e-05 -4.0000000000000024e-06 2.7999999999999996e-05
350 1 1.3622949996253263e-06 1000 -1.2000000000000004e-05 -4.0000000000000024e-06 3.5999999999999987e-05
351 1 2.2334900745145154e-06 1000 -1.2000000000000004e-05 3.9999999999999956e-06 -3.6000000000000001e-05
352 1 1.9920778893092438e-06 1000 -1.2000000000000004e-05 3.9999999999999956e-06 -2.8000000000000003e-05
353 1 2.2193954116686638e-06 1000 -1.2000000000000004e-05 3.9999999999999956e-06 -2.0000000000000005e-05
354 1 1.9998768495792311e-06 1000 -1.2000000000000004e-05 3.9999999999999956e-06 -1.2000000000000004e-05
355 1 2.0002391120931519e-06 1000 -1.2000000000000004e-05 3.9999999999999956e-06 -4.0000000000000024e-06
356 1 1.44355451312024e-06 1000 -1.2000000000000004e-05 3.9999999999999956e-06 3.9999999999999956e-06
357 1 1.7296642030344639e-06 1000 -1.2000000000000004e-05 3.9999999999999956e-06 1.1999999999999994e-05
358 1 1.7903889299708281e-06 1000 -1.2000000000000004e-05 3.9999999999999956e-06 1.9999999999999991e-05
359 1 1.5394116200818478e-06 1000 -1.2000000000000004e-05 3.9999999999999956e-06 2.7999999999999996e-05
360 1 1.5701724305396938e-06 1000 -1.2000000000000004e-05 3.9999999999999956e-06 3.5999999999999987e-05
361 1 3.1300082638345359e-06 1000 -1.2000000000000004e-05 1.1999999999999994e-05 -3.6000000000000001e-05
362 1 1.6911710245830779e-06 1000 -1.2000000000000004e-05 1.1999999999999994e-05 -2.8000000000000003e-05
363 1 1.6085597011540071e-06 1000 -1.2000000000000004e-05 1.1999999999999994e-05 -2.0000000000000005e-05
364 1 2.055260103059484e-06 1000 -1.2000000000000004e-05 1.1999999999999994e-05 -1.2000000000000004e-05
365 1 3.0172984460151415e-06 1000 -1.2000000000000004e-05 1.1999999999999994e-05 -4.0000000000000024e-06
366 1 2.1970480615081097e-06 1000 -1.2000000000000004e-05 1.1999999999999994e-05 3.9999999999999956e-06
367 1 1.9822702039148075e-06 1000 -1.2000000000000004e-05 1.1999999999999994e-05 1.1999999999999994e-05
368 1 1.810615105346783e-06 1000 -1.2000000000000004e-05 1.1999999999999994e-05 1.9999999999999991e-05
369 1 1.1509614700955877e-06 1000 -1.2000000000000004e-05 1.1999999999999994e-05 2.7999999999999996e-05
370 1 1.0027138041734483e-06 1000 -1.2000000000000004e-05 1.1999999999999994e-05 3.5999999999999987e-05
371 1 1.6541596000993779e-06 1000 -1.2000000000000004e-05 1.9999999999999991e-05 -3.6000000000000001e-05
372 1 1.6523457844509981e-06 1000 -1.2000000000000004e-05 1.9999999999999991e-05 -2.8000000000000003e-05
373 1 1.7307124309830658e-06 1000 -1.2000000000000004e-05 1.9999999999999991e-05 -2.0000000000000005e-05
374 1 1.774823917308878e-06 1000 -1.2000000000000004e-05 1.9999999999999991e-05 -1.2000000000000004e-05
375 1 2.0671503212704661e-06 1000 -1.2000000000000004e-05 1.9999999999999991e-05 -4.0000000000000024e-06
376 1 2.272870477080963e-06 1000 -1.2000000000000004e-05 1.9999999999999991e-05 3.9999999999999956e-06
377 1 1.8973515011176857e-06 1000 -1.2000000000000004e-05 1.9999999999999991e-05 1.1999999999999994e-05
378 1 2.0930037098268896e-06 1000 -1.2000000000000004e-05 1.9999999999999991e-05 1.9999999999999991e-05
379 1 1.5046531371694429e-06 1000 -1.2000000000000004e-05 1.9999999999999991e-05 2.7999999999999996e-05
380 1 2.6820348479213298e-06 1000 -1.2000000000000004e-05 1.9999999999999991e-05 3.5999999999999987e-05
381 1 2.2143528357598428e-06 1000 -1.2000000000000004e-05 2.7999999999999996e-05 -3.6000000000000001e-05
382 1 1.4726513785337097e-06 1000 -1.2000000000000004e-05 2.7999999999999996e-05 -2.8000000000000003e-05
383 1 3.0124480592169066e-06 1000 -1.2000000000000004e-05 2.7999999999999996e-05 -2.0000000000000005e-05
384 1 1.9704368963248734e-06 1000 -1.2000000000000004e-05 2.7999999999999996e-05 -1.2000000000000004e-05
385 1 1.5590685316489866e-06 1000 -1.2000000000000004e-05 2.7999999999999996e-05 -4.0000000000000024e-06
386 1 1.119819256765649e-06 1000 -1.2000000000000004e-05 2.7999999999999996e-05 3.9999999999999956e-06
387 1 2.0109819485512046e-06 1000 -1.2000000000000004e-05 2.7999999999999996e-05 1.1999999999999994e-05
388 1 3.0961785266080624e-06 1000 -1.2000000000000004e-05 2.7999999999999996e-05 1.9999999999999991e-05
389 1 2.5432927325227233e-06 1000 -1.2000000000000004e-05 2.7999999999999996e-05 2.7999999999999996e-05
390 1 2.4527792630556017e-06 1000 -1.2000000000000004e-05 2.7999999999999996e-05 3.5999999999999987e-05
391 1 1.7597728451558521e-06 1000 -1.2000000000000004e-05 3.5999999999999987e-05 -3.6000000000000001e-05
392 1 2.8131168114809054e-06 1000 -1.2000000000000004e-05 3.5999999999999987e-05 -2.8000000000000003e-05
393 1 2.0243963834423178e-06 1000 -1.2000000000000004e-05 3.5999999999999987e-05 -2.0000000000000005e-05
394 1 1.7521287429370473e-06 1000 -1.2000000000000004e-05 3.5999999999999987e-05 -1.2000000000000004e-05
395 1 1.147151277361052e-06 1000 -1.2000000000000004e-05 3.5999999999999987e-05 -4.0000000000000024e-06
396 1 2.874652764542367e-06 1000 -1.2000000000000004e-05 3.5999999999999987e-05 3.9999999999999956e-06
397 1 3.6946176816053768e-06 1000 -1.2000000000000004e-05 3.5999999999999987e-05 1.1999999999999994e-05
398 1 2.3804599586242181e-06 1000 -1.2000000000000004e-05 3.5999999999999987e-05 1.9999999999999991e-05
399 1 1.6992794322754885e-06 1000 -1.2000000000000004e-05 3.5999999999999987e-05 2.7999999999999996e-05
400 1 1.8436189028633718e-06 1000 -1.2000000000000004e-05 3.5999999999999987e-05 3.5999999999999987e-05
401 1 1.669515004361605e-06 1000 -4.0000000000000024e-06 -3.6000000000000001e-05 -3.6000000000000001e-05
402 1 1.4479142867499385e-06 1000 -4.0000000000000024e-06 -3.6000000000000001e-05 -2.8000000000000003e-05
403 1 1.6545543567561722e-06 1000 -4.0000000000000024e-06 -3.6000000000000001e-05 -2.0000000000000005e-05
404 1 1.3217084468832247e-06 1000 -4.0000000000000024e-06 -3.6000000000000001e-05 -1.2000000000000004e-05
405 1 2.648769701057489e-06 1000 -4.0000000000000024e-06 -3.6000000000000001e-05 -4.0000000000000024e-06
406 1 1.3742722465567222e-06 1000 -4.0000000000000024e-06 -3.6000000000000001e-05 3.9999999999999956e-06
407 1 3.3014869896779861e-06 1000 -4.0000000000000024e-06 -3.6000000000000001e-05 1.1999999999999994e-05
408 1 2.0561568314856346e-06 1000 -4.0000000000000024e-06 -3.6000000000000001e-05 1.9999999999999991e-05
409 1 2.3060319798664424e-06 1000 -4.0000000000000024e-06 -3.6000000000000001e-05 2.7999999999999996e-05
410 1 1.4239415564260764e-06 1000 -4.0000000000000024e-06 -3.6000000000000001e-05 3.5999999999999987e-05
411 1 1.5212921310851945e-06 1000 -4.0000000000000024e-06 -2.8000000000000003e-05 -3.6000000000000001e-05
412 1 1.2614050006392393e-06 1000 -4.0000000000000024e-06 -2.8000000000000003e-05 -2.8000000000000003e-05
413 1 1.5589507896214381e-06 1000 -4.0000000000000024e-06 -2.8000000000000003e-05 -2.0000000000000005e-05
414 1 1.4248643194148403e-06 1000 -4.0000000000000024e-06 -2.8000000000000003e-05 -1.2000000000000004e-05
415 1 1.9550136931072949e-06 1000 -4.0000000000000024e-06 -2.8000000000000003e-05 -4.0000000000000024e-06
416 1 2.101473622149292e-06 1000 -4.0000000000000024e-06 -2.8000000000000003e-05 3.9999999999999956e-06
417 1 2.0311859521767665e-06 1000 -4.0000000000000024e-06 -2.8000000000000003e-05 1.1999999999999994e-05
418 1 2.4199100171199561e-06 1000 -4.0000000000000024e-06 -2.8000000000000003e-05 1.9999999999999991e-05
419 1 2.7387643493099392e-06 1000 -4.0000000000000024e-06 -2.8000000000000003e-05 2.7999999999999996e-05
420 1 2.2083512408334563e-06 1000 -4.0000000000000024e-06 -2.8000000000000003e-05 3.5999999999999987e-05
421 1 3.584256275124452e-06 1000 -4.0000000000000024e-06 -2.0000000000000005e-05 -3.6000000000000001e-05
422 1 1.6644700505488567e-06 1000 -4.0000000000000024e-06 -2.0000000000000005e-05 -2.8000000000000003e-05
423 1 2.1648542119761498e-06 1000 -4.0000000000000024e-06 -2.0000000000000005e-05 -2.0000000000000005e-05
424 1 1.5547999925735937e-06 1000 -4.0000000000000024e-06 -2.0000000000000005e-05 -1.2000000000000004e-05
425 1 1.5238771353817526e-06 1000 -4.0000000000000024e-06 -2.0000000000000005e-05 -4.0000000000000024e-06
426 1 1.8990366204539002e-06 1000 -4.0000000000000024e-06 -2.0000000000000005e-05 3.9999999999999956e-06
427 1 1.9153874280094415e-06 1000 -4.0000000000000024e-06 -2.0000000000000005e-05 1.1999999999999994e-05
428 1 1.8150518039605497e-06 1000 -4.0000000000000024e-06 -2.0000000000000005e-05 1.9999999999999991e-05
429 1 2.8106254989064652e-06 1000 -4.0000000000000024e-06 -2.0000000000000005e-05 2.7999999999999996e-05
430 1 2.1587557088089603e-06 1000 -4.0000000000000024e-06 -2.0000000000000005e-05 3.5999999999999987e-05
431 1 3.7188109983997599e-06 1000 -4.0000000000000024e-06 -1.2000000000000004e-05 -3.6000000000000001e-05
432 1 1.0583882244399385e-06 1000 -4.0000000000000024e-06 -1.2000000000000004e-05 -2.8000000000000003e-05
433 1 1.8834597148228904e-06 1000 -4.0000000000000024e-06 -1.2000000000000004e-05 -2.0000000000000005e-05
434 1 1.6206364001418514e-06 1000 -4.0000000000000024e-06 -1.2000000000000004e-05 -1.2000000000000004e-05
435 1 1.9698656388110299e-06 1000 -4.0000000000000024e-06 -1.2000000000000004e-05 -4.0000000000000024e-06
436 1 1.5278653425932158e-06 1000 -4.0000000000000024e-06 -1.2000000000000004e-05 3.9999999999999956e-06
437 1 1.2887886571101002e-06 1000 -4.0000000000000024e-06 -1.2000000000000004e-05 1.1999999999999994e-05
438 1 2.9325271474524183e-06 1000 -4.0000000000000024e-06 -1.2000000000000004e-05 1.9999999999999991e-05
439 1 1.6390724698840058e-06 1000 -4.0000000000000024e-06 -1.2000000000000004e-05 2.7999999999999996e-05
440 1 1.2421202789152498e-06 1000 -4.0000000000000024e-06 -1.2000000000000004e-05 3.5999999999999987e-05
441 1 2.3534265292760101e-06 1000 -4.0000000000000024e-06 -4.0000000000000024e-06 -3.6000000000000001e-05
442 1 2.0488401412230538e-06 1000 -4.0000000000000024e-06 -4.0000000000000024e-06 -2.8000000000000003e-05
443 1 1.9416463307499667e-06 1000 -4.0000000000000024e-06 -4.0000000000000024e-06 -2.0000000000000005e-05
444 1 1.5320698939043208e-06 1000 -4.0000000000000024e-06 -4.0000000000000024e-06 -1.2000000000000004e-05
445 1 2.0997048641714618e-06 1000 -4.0000000000000024e-06 -4.0000000000000024e-06 -4.0000000000000024e-06
446 1 1.6771555494641158e-06 1000 -4.0000000000000024e-06 -4.0000000000000024e-06 3.9999999999999956e-06
447 1 1.626625327771599e-06 1000 -4.0000000000000024e-06 -4.0000000000000024e-06 1.1999999999999994e-05
448 1 1.3805168404620373e-06 1000 -4.0000000000000024e-06 -4.0000000000000024e-06 1.9999999999999991e-05
449 1 1.0508528010060097e-06 1000 -4.0000000000000024e-06 -4.0000000000000024e-06 2.7999999999999996e-05
450 1 1.6897064623832909e-06 1000 -4.0000000000000024e-06 -4.0000000000000024e-06 3.5999999999999987e-05
451 1 1.0830756637603984e-06 1000 -4.0000000000000024e-06 3.9999999999999956e-06 -3.6000000000000001e-05
452 1 1.2147431123422558e-06 1000 -4.0000000000000024e-06 3.9999999999999956e-06 -2.8000000000000003e-05
453 1 1.7953975099510958e-06 1000 -4.0000000000000024e-06 3.9999999999999956e-06 -2.0000000000000005e-05
454 1 1.8055234997339614e-06 1000 -4.0000000000000024e-06 3.9999999999999956e-06 -1.2000000000000004e-05
455 1 1.8414318082108664e-06 1000 -4.0000000000000024e-06 3.9999999999999956e-06 -4.0000000000000024e-06
456 1 3.0087239311164012e-06 1000 -4.0000000000000024e-06 3.9999999999999956e-06 3.9999999999999956e-06
457 1 1.9468835208314021e-06 1000 -4.0000000000000024e-06 3.9999999999999956e-06 1.1999999999999994e-05
458 1 1.3959425090288082e-06 1000 -4.0000000000000024e-06 3.9999999999999956e-06 1.9999999999999991e-05
459 1 1.9855223525751249e-06 1000 -4.0000000000000024e-06 3.9999999999999956e-06 2.7999999999999996e-05
460 1 3.4232627027059896e-06 1000 -4.0000000000000024e-06 3.9999999999999956e-06 3.5999999999999987e-05
461 1 1.6881975342061794e-06 1000 -4.0000000000000024e-06 1.1999999999999994e-05 -3.6000000000000001e-05
462 1 3.0454314759258697e-06 1000 -4.0000000000000024e-06 1.1999999999999994e-05 -2.8000000000000003e-05
463 1 1.9099342681958877e-06 1000 -4.0000000000000024e-06 1.1999999999999994e-05 -2.0000000000000005e-05
464 1 1.7965124962689868e-06 1000 -4.0000000000000024e-06 1.1999999999999994e-05 -1.2000000000000004e-05
465 1 1.812119670742573e-06 1000 -4.0000000000000024e-06 1.1999999999999994e-05 -4.0000000000000024e-06
466 1 3.3921103059092612e-06 1000 -4.0000000000000024e-06 1.1999999999999994e-05 3.9999999999999956e-06
467 1 4.2299003466221374e-06 1000 -4.0000000000000024e-06 1.1999999999999994e-05 1.1999999999999994e-05
468 1 2.0244940836136941e-06 1000 -4.0000000000000024e-06 1.1999999999999994e-05 1.9999999999999991e-05
469 1 1.3641410557272487e-06 1000 -4.0000000000000024e-06 1.1999999999999994e-05 2.7999999999999996e-05
470 1 3.9854158321198465e-06 1000 -4.0000000000000024e-06 1.1999999999999994e-05 3.5999999999999987e-05
471 1 1.5481230647179833e-06 1000 -4.0000000000000024e-06 1.9999999999999991e-05 -3.6000000000000001e-05
472 1 3.8478464463058534e-06 1000 -4.0000000000000024e-06 1.9999999999999991e-05 -2.8000000000000003e-05
473 1 2.0187767560213444e-06 1000 -4.0000000000000024e-06 1.9999999999999991e-05 -2.0000000000000005e-05
474 1 1.5453158880012427e-06 1000 -4.0000000000000024e-06 1.9999999999999991e-05 -1.2000000000000004e-05
475 1 1.3264745698630102e-06 1000 -4.0000000000000024e-06 1.9999999999999991e-05 -4.0000000000000024e-06
476 1 2.4219344438632174e-06 1000 -4.0000000000000024e-06 1.9999999999999991e-05 3.9999999999999956e-06
477 1 3.8005731959104659e-06 1000 -4.0000000000000024e-06 1.9999999999999991e-05 1.1999999999999994e-05
478 1 2.9637514893332638e-06 1000 -4.0000000000000024e-06 1.9999999999999991e-05 1.9999999999999991e-05
479 1 1.996072614908925e-06 1000 -4.0000000000000024e-06 1.9999999999999991e-05 2.7999999999999996e-05
480 1 1.5435447683327526e-06 1000 -4.0000000000000024e-06 1.9999999999999991e-05 3.5999999999999987e-05
481 1 2.3938492467132343e-06 1000 -4.0000000000000024e-06 2.7999999999999996e-05 -3.6000000000000001e-05
482 1 1.4556231147732222e-06 1000 -4.0000000000000024e-06 2.7999999999999996e-05 -2.8000000000000003e-05
483 1 2.0150155697787894e-06 1000 -4.0000000000000024e-06 2.7999999999999996e-05 -2.0000000000000005e-05
484 1 1.8461103562833891e-06 1000 -4.0000000000000024e-06 2.7999999999999996e-05 -1.2000000000000004e-05
485 1 2.3132892536357091e-06 1000 -4.0000000000000024e-06 2.7999999999999996e-05 -4.0000000000000024e-06
486 1 1.2805842110222247e-06 1000 -4.0000000000000024e-06 2.7999999999999996e-05 3.9999999999999956e-06
487 1 2.7402915363383668e-06 1000 -4.0000000000000024e-06 2.7999999999999996e-05 1.1999999999999994e-05
488 1 1.7235177928381915e-06 1000 -4.0000000000000024e-06 2.7999999999999996e-05 1.9999999999999991e-05
489 1 3.2676566175048098e-06 1000 -4.0000000000000024e-06 2.7999999999999996e-05 2.7999999999999996e-05
490 1 2.5498741305279161e-06 1000 -4.0000000000000024e-06 2.7999999999999996e-05 3.5999999999999987e-05
491 1 2.2690636772514407e-06 1000 -4.0000000000000024e-06 3.5999999999999987e-05 -3.6000000000000001e-05
492 1 1.9822890425105494e-06 1000 -4.0000000000000024e-06 3.5999999999999987e-05 -2.8000000000000003e-05
493 1 1.8565260924384771e-06 1000 -4.0000000000000024e-06 3.5999999999999987e-05 -2.0000000000000005e-05
494 1 1.8828138322939789e-06 1000 -4.0000000000000024e-06 3.5999999999999987e-05 -1.2000000000000004e-05
495 1 2.1212046319105135e-06 1000 -4.0000000000000024e-06 3.5999999999999987e-05 -4.0000000000000024e-06
496 1 2.1501785216132858e-06 1000 -4.0000000000000024e-06 3.5999999999999987e-05 3.9999999999999956e-06
497 1 1.5607367554236291e-06 1000 -4.0000000000000024e-06 3.5999999999999987e-05 1.1999999999999994e-05
498 1 1.579988641795122e-06 1000 -4.0000000000000024e-06 3.5999999999999987e-05 1.9999999999999991e-05
499 1 2.5432992344724049e-06 1000 -4.0000000000000024e-06 3.5999999999999987e-05 2.7999999999999996e-05
500 1 1.5721852400743119e-06 1000 -4.0000000000000024e-06 3.5999999999999987e-05 3.5999999999999987e-05
501 1 1.9466703881480263e-06 1000 3.9999999999999956e-06 -3.6000000000000001e-05 -3.6000000000000001e-05
502 1 1.2848611654627121e-06 1000 3.9999999999999956e-06 -3.6000000000000001e-05 -2.8000000000000003e-05
503 1 9.6246348924346915e-07 1000 3.9999999999999956e-06 -3.6000000000000001e-05 -2.0000000000000005e-05
504 1 1.5979972550073447e-06 1000 3.9999999999999956e-06 -3.6000000000000001e-05 -1.2000000000000004e-05
505 1 2.2655647545154752e-06 1000 3.9999999999999956e-06 -3.6000000000000001e-05 -4.0000000000000024e-06
506 1 1.0665579286449747e-06 1000 3.9999999999999956e-06 -3.6000000000000001e-05 3.9999999999999956e-06
507 1 3.7577212914411749e-06 1000 3.9999999999999956e-06 -3.6000000000000001e-05 1.1999999999999994e-05
508 1 2.3041204824334772e-06 1000 3.9999999999999956e-06 -3.6000000000000001e-05 1.9999999999999991e-05
509 1 1.5737601625695356e-06 1000 3.9999999999999956e-06 -3.6000000000000001e-05 2.7999999999999996e-05
510 1 1.231767168638469e-06 1000 3.9999999999999956e-06 -3.6000000000000001e-05 3.5999999999999987e-05
511 1 1.5706527587131532e-06 1000 3.9999999999999956e-06 -2.8000000000000003e-05 -3.6000000000000001e-05
512 1 3.7694906639840454e-06 1000 3.9999999999999956e-06 -2.8000000000000003e-05 -2.8000000000000003e-05
513 1 1.800436245763949e-06 1000 3.9999999999999956e-06 -2.8000000000000003e-05 -2.0000000000000005e-05
514 1 3.6293738279527274e-06 1000 3.9999999999999956e-06 -2.8000000000000003e-05 -1.2000000000000004e-05
515 1 2.0641734355339763e-06 1000 3.9999999999999956e-06 -2.8000000000000003e-05 -4.0000000000000024e-06
516 1 2.1154125431781115e-06 1000 3.9999999999999956e-06 -2.8000000000000003e-05 3.9999999999999956e-06
517 1 2.271613521002236e-06 1000 3.9999999999999956e-06 -2.8000000000000003e-05 1.1999999999999994e-05
518 1 1.8560623282915526e-06 1000 3.9999999999999956e-06 -2.8000000000000003e-05 1.9999999999999991e-05
519 1 2.9439029800660899e-06 1000 3.9999999999999956e-06 -2.8000000000000003e-05 2.7999999999999996e-05
520 1 1.2842478072225046e-06 1000 3.9999999999999956e-06 -2.8000000000000003e-05 3.5999999999999987e-05
521 1 2.7523437847330489e-06 1000 3.9999999999999956e-06 -2.0000000000000005e-05 -3.6000000000000001e-05
522 1 2.4692764516431208e-06 1000 3.9999999999999956e-06 -2.0000000000000005e-05 -2.8000000000000003e-05
523 1 2.8187128491176585e-06 1000 3.9999999999999956e-06 -2.0000000000000005e-05 -2.0000000000000005e-05
524 1 1.3620721778319846e-06 1000 3.9999999999999956e-06 -2.0000000000000005e-05 -1.2000000000000004e-05
525 1 2.7352361257918362e-06 1000 3.9999999999999956e-06 -2.0000000000000005e-05 -4.0000000000000024e-06
526 1 1.5297265477081881e-06 1000 3.9999999999999956e-06 -2.0000000000000005e-05 3.9999999999999956e-06
527 1 1.5765956532927387e-06 1000 3.9999999999999956e-06 -2.0000000000000005e-05 1.1999999999999994e-05
528 1 1.8696614475884163e-06 1000 3.9999999999999956e-06 -2.0000000000000005e-05 1.9999999999999991e-05
529 1 1.6460207572473732e-06 1000 3.9999999999999956e-06 -2.0000000000000005e-05 2.7999999999999996e-05
530 1 2.158103261725604e-06 1000 3.9999999999999956e-06 -2.0000000000000005e-05 3.5999999999999987e-05
531 1 1.7470189976946614e-06 1000 3.9999999999999956e-06 -1.2000000000000004e-05 -3.6000000000000001e-05
532 1 2.0054094626711535e-06 1000 3.9999999999999956e-06 -1.2000000000000004e-05 -2.8000000000000003e-05
533 1 3.7610593341011768e-06 1000 3.9999999999999956e-06 -1.2000000000000004e-05 -2.0000000000000005e-05
534 1 2.1201462378225403e-06 1000 3.9999999999999956e-06 -1.2000000000000004e-05 -1.2000000000000004e-05
535 1 4.3503257433558923e-06 1000 3.9999999999999956e-06 -1.2000000000000004e-05 -4.0000000000000024e-06
536 1 2.3953437604434151e-06 1000 3.9999999999999956e-06 -1.2000000000000004e-05 3.9999999999999956e-06
537 1 2.4491371987026541e-06 1000 3.9999999999999956e-06 -1.2000000000000004e-05 1.1999999999999994e-05
538 1 2.9693668582812803e-06 1000 3.9999999999999956e-06 -1.2000000000000004e-05 1.9999999999999991e-05
539 1 1.459401218875512e-06 1000 3.9999999999999956e-06 -1.2000000000000004e-05 2.7999999999999996e-05
540 1 1.505052195711151e-06 1000 3.9999999999999956e-06 -1.2000000000000004e-05 3.5999999999999987e-05
541 1 3.610137924164622e-06 1000 3.9999999999999956e-06 -4.0000000000000024e-06 -3.6000000000000001e-05
542 1 2.7189384028359704e-06 1000 3.9999999999999956e-06 -4.0000000000000024e-06 -2.8000000000000003e-05
543 1 3.1785134662051659e-06 1000 3.9999999999999956e-06 -4.0000000000000024e-06 -2.0000000000000005e-05
544 1 2.2084995656609857e-06 1000 3.9999999999999956e-06 -4.0000000000000024e-06 -1.2000000000000004e-05
545 1 1.5021822740442205e-06 1000 3.9999999999999956e-06 -4.0000000000000024e-06 -4.0000000000000024e-06
546 1 3.0541579771584814e-06 1000 3.9999999999999956e-06 -4.0000000000000024e-06 3.9999999999999956e-06
547 1 2.8720993994627684e-06 1000 3.9999999999999956e-06 -4.0000000000000024e-06 1.1999999999999994e-05
548 1 2.1373900915930389e-06 1000 3.9999999999999956e-06 -4.0000000000000024e-06 1.9999999999999991e-05
549 1 2.1301066277143822e-06 1000 3.9999999999999956e-06 -4.0000000000000024e-06 2.7999999999999996e-05
550 1 1.923228898174009e-06 1000 3.9999999999999956e-06 -4.0000000000000024e-06 3.5999999999999987e-05
551 1 2.385726463688879e-06 1000 3.9999999999999956e-06 3.9999999999999956e-06 -3.6000000000000001e-05
552 1 1.4367560413994121e-06 1000 3.9999999999999956e-06 3.9999999999999956e-06 -2.8000000000000003e-05
553 1 1.2463798503080883e-06 1000 3.9999999999999956e-06 3.9999999999999956e-06 -2.0000000000000005e-05
554 1 2.3947506209599432e-06 1000 3.9999999999999956e-06 3.9999999999999956e-06 -1.2000000000000004e-05
555 1 2.4167439070557439e-06 1000 3.9999999999999956e-06 3.9999999999999956e-06 -4.0000000000000024e-06
556 1 1.9217405183058479e-06 1000 3.9999999999999956e-06 3.9999999999999956e-06 3.9999999999999956e-06
557 1 2.7739731290359403e-06 1000 3.9999999999999956e-06 3.9999999999999956e-06 1.1999999999999994e-05
558 1 2.6245758885894926e-06 1000 3.9999999999999956e-06 3.9999999999999956e-06 1.9999999999999991e-05
559 1 1.6708984034341207e-06 1000 3.9999999999999956e-06 3.9999999999999956e-06 2.7999999999999996e-05
560 1 1.2616992607098776e-06 1000 3.9999999999999956e-06 3.9999999999999956e-06 3.5999999999999987e-05
561 1 1.7232021171781819e-06 1000 3.9999999999999956e-06 1.1999999999999994e-05 -3.6000000000000001e-05
562 1 2.3012717469100002e-06 1000 3.9999999999999956e-06 1.1999999999999994e-05 -2.8000000000000003e-05
563 1 1.1813872211961167e-06 1000 3.9999999999999956e-06 1.1999999999999994e-05 -2.0000000000000005e-05
564 1 1.9349573283519722e-06 1000 3.9999999999999956e-06 1.1999999999999994e-05 -1.2000000000000004e-05
565 1 3.8948010612234226e-06 1000 3.9999999999999956e-06 1.1999999999999994e-05 -4.0000000000000024e-06
566 1 1.9086665672310375e-06 1000 3.9999999999999956e-06 1.1999999999999994e-05 3.9999999999999956e-06
567 1 1.8900586958378783e-06 1000 3.9999999999999956e-06 1.1999999999999994e-05 1.1999999999999994e-05
568 1 1.3084070256131235e-06 1000 3.9999999999999956e-06 1.1999999999999994e-05 1.9999999999999991e-05
569 1 2.0354600836362755e-06 1000 3.9999999999999956e-06 1.1999999999999994e-05 2.7999999999999996e-05
570 1 1.5133682231903628e-06 1000 3.9999999999999956e-06 1.1999999999999994e-05 3.5999999999999987e-05
571 1 1.8697896316236571e-06 1000 3.9999999999999956e-06 1.9999999999999991e-05 -3.6000000000000001e-05
572 1 2.0514596622858035e-06 1000 3.9999999999999956e-06 1.9999999999999991e-05 -2.8000000000000003e-05
573 1 1.8576876458299451e-06 1000 3.9999999999999956e-06 1.9999999999999991e-05 -2.0000000000000005e-05
574 1 2.6255362160544729e-06 1000 3.9999999999999956e-06 1.9999999999999991e-05 -1.2000000000000004e-05
575 1 1.6323522235758601e-06 1000 3.9999999999999956e-06 1.9999999999999991e-05 -4.0000000000000024e-06
576 1 2.5663253268956815e-06 1000 3.9999999999999956e-06 1.9999999999999991e-05 3.9999999999999956e-06
577 1 2.0004091732318868e-06 1000 3.9999999999999956e-06 1.9999999999999991e-05 1.1999999999999994e-05
578 1 2.1712065335284511e-06 1000 3.9999999999999956e-06 1.9999999999999991e-05 1.9999999999999991e-05
579 1 2.2545429639890468e-06 1000 3.9999999999999956e-06 1.9999999999999991e-05 2.7999999999999996e-05
580 1 1.8733235513436507e-06 1000 3.9999999999999956e-06 1.9999999999999991e-05 3.5999999999999987e-05
581 1 1.8444723101516189e-06 1000 3.9999999999999956e-06 2.7999999999999996e-05 -3.6000000000000001e-05
582 1 1.1322030045607227e-06 1000 3.9999999999999956e-06 2.7999999999999996e-05 -2.8000000000000003e-05
583 1 1.4604642454536118e-06 1000 3.9999999999999956e-06 2.7999999999999996e-05 -2.0000000000000005e-05
584 1 2.7029587066715359e-06 1000 3.9999999999999956e-06 2.7999999999999996e-05 -1.2000000000000004e-05
585 1 2.332554782511242e-06 1000 3.9999999999999956e-06 2.7999999999999996e-05 -4.0000000000000024e-06
586 1 1.6590233105008802e-06 1000 3.9999999999999956e-06 2.7999999999999996e-05 3.9999999999999956e-06
587 1 1.4889095695189086e-06 1000 3.9999999999999956e-06 2.7999999999999996e-05 1.1999999999999994e-05
588 1 2.0558755716215779e-06 1000 3.9999999999999956e-06 2.7999999999999996e-05 1.9999999999999991e-05
589 1 2.0038760753973695e-06 1000 3.9999999999999956e-06 2.7999999999999996e-05 2.7999999999999996e-05
590 1 2.4007472412335303e-06 1000 3.9999999999999956e-06 2.7999999999999996e-05 3.5999999999999987e-05
591 1 1.924193008269751e-06 1000 3.9999999999999956e-06 3.5999999999999987e-05 -3.6000000000000001e-05
592 1 2.5030501723227762e-06 1000 3.9999999999999956e-06 3.5999999999999987e-05 -2.8000000000000003e-05
593 1 1.1000323289844425e-06 1000 3.9999999999999956e-06 3.5999999999999987e-05 -2.0000000000000005e-05
594 1 1.9400285409203075e-06 1000 3.9999999999999956e-06 3.5999999999999987e-05 -1.2000000000000004e-05
595 1 1.7827498021139047e-06 1000 3.9999999999999956e-06 3.5999999999999987e-05 -4.0000000000000024e-06
596 1 1.3567163883097121e-06 1000 3.9999999999999956e-06 3.5999999999999987e-05 3.9999999999999956e-06
597 1 1.6638175866709607e-06 1000 3.9999999999999956e-06 3.5999999999999987e-05 1.1999999999999994e-05
598 1 1.8156408155214019e-06 1000 3.9999999999999956e-06 3.5999999999999987e-05 1.9999999999999991e-05
599 1 1.444998554038245e-06 1000 3.9999999999999956e-06 3.5999999999999987e-05 2.7999999999999996e-05
600 1 1.6859595680796564e-06 1000 3.9999999999999956e-06 3.5999999999999987e-05 3.5999999999999987e-05
601 1 3.4506948964502302e-06 1000 1.1999999999999994e-05 -3.6000000000000001e-05 -3.6000000000000001e-05
602 1 1.6398580828632407e-06 1000 1.1999999999999994e-05 -3.6000000000000001e-05 -2.8000000000000003e-05
603 1 2.1588632945292976e-06 1000 1.1999999999999994e-05 -3.6000000000000001e-05 -2.0000000000000005e-05
604 1 2.3698072387015817e-06 1000 1.1999999999999994e-05 -3.6000000000000001e-05 -1.2000000000000004e-05
605 1 1.4423431998869217e-06 1000 1.1999999999999994e-05 -3.6000000000000001e-05 -4.0000000000000024e-06
606 1 1.7545879505223828e-06 1000 1.1999999999999994e-05 -3.6000000000000001e-05 3.9999999999999956e-06
607 1 2.8430379506299117e-06 1000 1.1999999999999994e-05 -3.6000000000000001e-05 1.1999999999999994e-05
608 1 1.0549589890572629e-06 1000 1.1999999999999994e-05 -3.6000000000000001e-05 1.9999999999999991e-05
609 1 1.9012794652892235e-06 1000 1.1999999999999994e-05 -3.6000000000000001e-05 2.7999999999999996e-05
610 1 1.1136621929467034e-06 1000 1.1999999999999994e-05 -3.6000000000000001e-05 3.5999999999999987e-05
611 1 2.1439200158135483e-06 1000 1.1999999999999994e-05 -2.8000000000000003e-05 -3.6000000000000001e-05
612 1 2.5593558817565079e-06 1000 1.1999999999999994e-05 -2.8000000000000003e-05 -2.8000000000000003e-05
613 1 2.8974135624363379e-06 1000 1.1999999999999994e-05 -2.8000000000000003e-05 -2.0000000000000005e-05
614 1 3.2812800357534527e-06 1000 1.1999999999999994e-05 -2.8000000000000003e-05 -1.2000000000000004e-05
615 1 1.8826138560824754e-06 1000 1.1999999999999994e-05 -2.8000000000000003e-05 -4.0000000000000024e-06
616 1 1.2771193735826675e-06 1000 1.1999999999999994e-05 -2.8000000000000003e-05 3.9999999999999956e-06
617 1 2.0295053122344968e-06 1000 1.1999999999999994e-05 -2.8000000000000003e-05 1.1999999999999994e-05
618 1 2.2506981785209035e-06 1000 1.1999999999999994e-05 -2.8000000000000003e-05 1.9999999999999991e-05
619 1 2.6805778173897238e-06 1000 1.1999999999999994e-05 -2.8000000000000003e-05 2.7999999999999996e-05
620 1 2.3782485840564065e-06 1000 1.1999999999999994e-05 -2.8000000000000003e-05 3.5999999999999987e-05
621 1 3.4954004075955348e-06 1000 1.1999999999999994e-05 -2.0000000000000005e-05 -3.6000000000000001e-05
622 1 2.2898035604619018e-06 1000 1.1999999999999994e-05 -2.0000000000000005e-05 -2.8000000000000003e-05
623 1 1.585409112900588e-06 1000 1.1999999999999994e-05 -2.0000000000000005e-05 -2.0000000000000005e-05
624 1 2.1771829726228739e-06 1000 1.1999999999999994e-05 -2.0000000000000005e-05 -1.2000000000000004e-05
625 1 1.4751331921772579e-06 1000 1.1999999999999994e-05 -2.0000000000000005e-05 -4.0000000000000024e-06
626 1 1.8557182185005519e-06 1000 1.1999999999999994e-05 -2.0000000000000005e-05 3.9999999999999956e-06
627 1 1.5384810484140655e-06 1000 1.1999999999999994e-05 -2.0000000000000005e-05 1.1999999999999994e-05
628 1 1.6752824148070335e-06 1000 1.1999999999999994e-05 -2.0000000000000005e-05 1.9999999999999991e-05
629 1 1.5089980048114637e-06 1000 1.1999999999999994e-05 -2.0000000000000005e-05 2.7999999999999996e-05
630 1 1.2674680798276089e-06 1000 1.1999999999999994e-05 -2.0000000000000005e-05 3.5999999999999987e-05
631 1 4.1852798673765031e-06 1000 1.1999999999999994e-05 -1.2000000000000004e-05 -3.6000000000000001e-05
632 1 3.4026884926365044e-06 1000 1.1999999999999994e-05 -1.2000000000000004e-05 -2.8000000000000003e-05
633 1 1.9619882420170431e-06 1000 1.1999999999999994e-05 -1.2000000000000004e-05 -2.0000000000000005e-05
634 1 2.7830278978122666e-06 1000 1.1999999999999994e-05 -1.2000000000000004e-05 -1.2000000000000004e-05
635 1 3.0722812185166237e-06 1000 1.1999999999999994e-05 -1.2000000000000004e-05 -4.0000000000000024e-06
636 1 2.133843782788414e-06 1000 1.1999999999999994e-05 -1.2000000000000004e-05 3.9999999999999956e-06
637 1 1.1917671705396575e-06 1000 1.1999999999999994e-05 -1.2000000000000004e-05 1.1999999999999994e-05
638 1 3.1335288231226658e-06 1000 1.1999999999999994e-05 -1.2000000000000004e-05 1.9999999999999991e-05
639 1 1.7345694463313866e-06 1000 1.1999999999999994e-05 -1.2000000000000004e-05 2.7999999999999996e-05
640 1 1.4850063451497453e-06 1000 1.1999999999999994e-05 -1.2000000000000004e-05 3.5999999999999987e-05
641 1 1.8062095603846166e-06 1000 1.1999999999999994e-05 -4.0000000000000024e-06 -3.6000000000000001e-05
642 1 1.7806415549444878e-06 1000 1.1999999999999994e-05 -4.0000000000000024e-06 -2.8000000000000003e-05
643 1 1.3982390134219878e-06 1000 1.1999999999999994e-05 -4.0000000000000024e-06 -2.0000000000000005e-05
644 1 1.4838064349555137e-06 1000 1.1999999999999994e-05 -4.0000000000000024e-06 -1.2000000000000004e-05
645 1 1.4019109619995312e-06 1000 1.1999999999999994e-05 -4.0000000000000024e-06 -4.0000000000000024e-06
646 1 2.7577288362951366e-06 1000 1.1999999999999994e-05 -4.0000000000000024e-06 3.9999999999999956e-06
647 1 2.8735622213342159e-06 1000 1.1999999999999994e-05 -4.0000000000000024e-06 1.1999999999999994e-05
648 1 1.1337655814464565e-06 1000 1.1999999999999994e-05 -4.0000000000000024e-06 1.9999999999999991e-05
649 1 2.6005051115103119e-06 1000 1.1999999999999994e-05 -4.0000000000000024e-06 2.7999999999999996e-05
650 1 2.5996504737424719e-06 1000 1.1999999999999994e-05 -4.0000000000000024e-06 3.5999999999999987e-05
651 1 3.4336929220446931e-06 1000 1.1999999999999994e-05 3.9999999999999956e-06 -3.6000000000000001e-05
652 1 1.4694254835805825e-06 1000 1.1999999999999994e-05 3.9999999999999956e-06 -2.8000000000000003e-05
653 1 2.5791745543519278e-06 1000 1.1999999999999994e-05 3.9999999999999956e-06 -2.0000000000000005e-05
654 1 1.391882572078149e-06 1000 1.1999999999999994e-05 3.9999999999999956e-06 -1.2000000000000004e-05
655 1 1.3694490441080422e-06 1000 1.1999999999999994e-05 3.9999999999999956e-06 -4.0000000000000024e-06
656 1 3.2800008471717314e-06 1000 1.1999999999999994e-05 3.9999999999999956e-06 3.9999999999999956e-06
657 1 2.2304462331333752e-06 1000 1.1999999999999994e-05 3.9999999999999956e-06 1.1999999999999994e-05
658 1 1.2233113338889491e-06 1000 1.1999999999999994e-05 3.9999999999999956e-06 1.9999999999999991e-05
659 1 1.8673918705941435e-06 1000 1.1999999999999994e-05 3.9999999999999956e-06 2.7999999999999996e-05
660 1 3.0071207501747442e-06 1000 1.1999999999999994e-05 3.9999999999999956e-06 3.5999999999999987e-05
661 1 1.6642171104568357e-06 1000 1.1999999999999994e-05 1.1999999999999994e-05 -3.6000000000000001e-05
662 1 1.9710911743613799e-06 1000 1.1999999999999994e-05 1.1999999999999994e-05 -2.8000000000000003e-05
663 1 1.512648996875863e-06 1000 1.1999999999999994e-05 1.1999999999999994e-05 -2.0000000000000005e-05
664 1 2.4751093625083842e-06 1000 1.1999999999999994e-05 1.1999999999999994e-05 -1.2000000000000004e-05
665 1 2.1560559167326498e-06 1000 1.1999999999999994e-05 1.1999999999999994e-05 -4.0000000000000024e-06
666 1 1.3361534621574287e-06 1000 1.1999999999999994e-05 1.1999999999999994e-05 3.9999999999999956e-06
667 1 2.1218629452801571e-06 1000 1.1999999999999994e-05 1.1999999999999994e-05 1.1999999999999994e-05
668 1 2.8873796437445505e-06 1000 1.1999999999999994e-05 1.1999999999999994e-05 1.9999999999999991e-05
669 1 1.8929975426603826e-06 1000 1.1999999999999994e-05 1.1999999999999994e-05 2.7999999999999996e-05
670 1 1.7349636617664525e-06 1000 1.1999999999999994e-05 1.1999999999999994e-05 3.5999999999999987e-05
671 1 2.2742487082126026e-06 1000 1.1999999999999994e-05 1.9999999999999991e-05 -3.6000000000000001e-05
672 1 1.3630168370867784e-06 1000 1.1999999999999994e-05 1.9999999999999991e-05 -2.8000000000000003e-05
673 1 3.3895062486167845e-06 1000 1.1999999999999994e-05 1.9999999999999991e-05 -2.0000000000000005e-05
674 1 1.723071895882096e-06 1000 1.1999999999999994e-05 1.9999999999999991e-05 -1.2000000000000004e-05
675 1 2.3115131902119556e-06 1000 1.1999999999999994e-05 1.9999999999999991e-05 -4.0000000000000024e-06
676 1 1.5457913008166343e-06 1000 1.1999999999999994e-05 1.9999999999999991e-05 3.9999999999999956e-06
677 1 1.8191639356085472e-06 1000 1.1999999999999994e-05 1.9999999999999991e-05 1.1999999999999994e-05
678 1 1.5484646046327489e-06 1000 1.1999999999999994e-05 1.9999999999999991e-05 1.9999999999999991e-05
679 1 2.4582302604290807e-06 1000 1.1999999999999994e-05 1.9999999999999991e-05 2.7999999999999996e-05
680 1 1.7957707928949942e-06 1000 1.1999999999999994e-05 1.9999999999999991e-05 3.5999999999999987e-05
681 1 1.639825772990881e-06 1000 1.1999999999999994e-05 2.7999999999999996e-05 -3.6000000000000001e-05
682 1 3.1023094587210712e-06 1000 1.1999999999999994e-05 2.7999999999999996e-05 -2.8000000000000003e-05
683 1 2.111876486126507e-06 1000 1.1999999999999994e-05 2.7999999999999996e-05 -2.0000000000000005e-05
684 1 1.6289296423988976e-06 1000 1.1999999999999994e-05 2.7999999999999996e-05 -1.2000000000000004e-05
685 1 1.4644873153326431e-06 1000 1.1999999999999994e-05 2.7999999999999996e-05 -4.0000000000000024e-06
686 1 1.9558058770288631e-06 1000 1.1999999999999994e-05 2.7999999999999996e-05 3.9999999999999956e-06
687 1 1.1613692281624624e-06 1000 1.1999999999999994e-05 2.7999999999999996e-05 1.1999999999999994e-05
688 1 2.1805488232749421e-06 1000 1.1999999999999994e-05 2.7999999999999996e-05 1.9999999999999991e-05
689 1 1.9166302430240317e-06 1000 1.1999999999999994e-05 2.7999999999999996e-05 2.7999999999999996e-05
690 1 1.9056433782118074e-06 1000 1.1999999999999994e-05 2.7999999999999996e-05 3.5999999999999987e-05
691 1 1.7008022107764838e-06 1000 1.1999999999999994e-05 3.5999999999999987e-05 -3.6000000000000001e-05
692 1 2.028428615235147e-06 1000 1.1999999999999994e-05 3.5999999999999987e-05 -2.8000000000000003e-05
693 1 2.022501635584677e-06 1000 1.1999999999999994e-05 3.5999999999999987e-05 -2.0000000000000005e-05
694 1 2.2179393985210264e-06 1000 1.1999999999999994e-05 3.5999999999999987e-05 -1.2000000000000004e-05
695 1 1.661219974547864e-06 1000 1.1999999999999994e-05 3.5999999999999987e-05 -4.0000000000000024e-06
696 1 2.2430053407120149e-06 1000 1.1999999999999994e-05 3.5999999999999987e-05 3.9999999999999956e-06
697 1 1.2885535721373824e-06 1000 1.1999999999999994e-05 3.5999999999999987e-05 1.1999999999999994e-05
698 1 1.8208115899915575e-06 1000 1.1999999999999994e-05 3.5999999999999987e-05 1.9999999999999991e-05
699 1 1.7319123357026217e-06 1000 1.1999999999999994e-05 3.5999999999999987e-05 2.7999999999999996e-05
700 1 2.1046329189534079e-06 1000 1.1999999999999994e-05 3.5999999999999987e-05 3.5999999999999987e-05
701 1 1.304071540293307e-06 1000 1.9999999999999991e-05 -3.6000000000000001e-05 -3.6000000000000001e-05
702 1 1.9651916255022154e-06 1000 1.9999999999999991e-05 -3.6000000000000001e-05 -2.8000000000000003e-05
703 1 2.3092674763863667e-06 1000 1.9999999999999991e-05 -3.6000000000000001e-05 -2.0000000000000005e-05
704 1 1.3298034100423788e-06 1000 1.9999999999999991e-05 -3.6000000000000001e-05 -1.2000000000000004e-05
705 1 3.0411681706883021e-06 1000 1.9999999999999991e-05 -3.6000000000000001e-05 -4.0000000000000024e-06
706 1 2.7484154162391426e-06 1000 1.9999999999999991e-05 -3.6000000000000001e-05 3.9999999999999956e-06
707 1 2.1210523256675472e-06 1000 1.9999999999999991e-05 -3.6000000000000001e-05 1.1999999999999994e-05
708 1 2.2708033209854175e-06 1000 1.9999999999999991e-05 -3.6000000000000001e-05 1.9999999999999991e-05
709 1 2.1567694117730882e-06 1000 1.9999999999999991e-05 -3.6000000000000001e-05 2.7999999999999996e-05
710 1 9.6770541122138234e-07 1000 1.9999999999999991e-05 -3.6000000000000001e-05 3.5999999999999987e-05
711 1 1.5188207760656581e-06 1000 1.9999999999999991e-05 -2.8000000000000003e-05 -3.6000000000000001e-05
712 1 1.2117713290569018e-06 1000 1.9999999999999991e-05 -2.8000000000000003e-05 -2.8000000000000003e-05
713 1 3.0006955320290632e-06 1000 1.9999999999999991e-05 -2.8000000000000003e-05 -2.0000000000000005e-05
714 1 2.4430530453371316e-06 1000 1.9999999999999991e-05 -2.8000000000000003e-05 -1.2000000000000004e-05
715 1 1.4223031580655323e-06 1000 1.9999999999999991e-05 -2.8000000000000003e-05 -4.0000000000000024e-06
716 1 2.6283930704335917e-06 1000 1.9999999999999991e-05 -2.8000000000000003e-05 3.9999999999999956e-06
717 1 2.1502042794413479e-06 1000 1.9999999999999991e-05 -2.8000000000000003e-05 1.1999999999999994e-05
718 1 1.7382530868345195e-06 1000 1.9999999999999991e-05 -2.8000000000000003e-05 1.9999999999999991e-05
719 1 2.1368488931528329e-06 1000 1.9999999999999991e-05 -2.8000000000000003e-05 2.7999999999999996e-05
720 1 2.6089727236126426e-06 1000 1.9999999999999991e-05 -2.8000000000000003e-05 3.5999999999999987e-05
721 1 1.9846919991556632e-06 1000 1.9999999999999991e-05 -2.0000000000000005e-05 -3.6000000000000001e-05
722 1 3.1748426072791433e-06 1000 1.9999999999999991e-05 -2.0000000000000005e-05 -2.8000000000000003e-05
723 1 2.0215559391597705e-06 1000 1.9999999999999991e-05 -2.0000000000000005e-05 -2.0000000000000005e-05
724 1 1.4852011617082977e-06 1000 1.9999999999999991e-05 -2.0000000000000005e-05 -1.2000000000000004e-05
725 1 1.7264327461655218e-06 1000 1.9999999999999991e-05 -2.0000000000000005e-05 -4.0000000000000024e-06
726 1 1.3724831158653412e-06 1000 1.9999999999999991e-05 -2.0000000000000005e-05 3.9999999999999956e-06
727 1 1.7125399032941819e-06 1000 1.9999999999999991e-05 -2.0000000000000005e-05 1.1999999999999994e-05
728 1 2.0104875340030628e-06 1000 1.9999999999999991e-05 -2.0000000000000005e-05 1.9999999999999991e-05
729 1 2.2839342275405464e-06 1000 1.9999999999999991e-05 -2.0000000000000005e-05 2.7999999999999996e-05
730 1 1.3878713281762259e-06 1000 1.9999999999999991e-05 -2.0000000000000005e-05 3.5999999999999987e-05
731 1 1.8483870084349709e-06 1000 1.9999999999999991e-05 -1.2000000000000004e-05 -3.6000000000000001e-05
732 1 2.3297675817738922e-06 1000 1.9999999999999991e-05 -1.2000000000000004e-05 -2.8000000000000003e-05
733 1 1.3073110535740907e-06 1000 1.9999999999999991e-05 -1.2000000000000004e-05 -2.0000000000000005e-05
734 1 1.4013924071994165e-06 1000 1.9999999999999991e-05 -1.2000000000000004e-05 -1.2000000000000004e-05
735 1 1.6948620110757885e-06 1000 1.9999999999999991e-05 -1.2000000000000004e-05 -4.0000000000000024e-06
736 1 1.3545540434673034e-06 1000 1.9999999999999991e-05 -1.2000000000000004e-05 3.9999999999999956e-06
737 1 2.0638496060150965e-06 1000 1.9999999999999991e-05 -1.2000000000000004e-05 1.1999999999999994e-05
738 1 1.954898747496695e-06 1000 1.9999999999999991e-05 -1.2000000000000004e-05 1.9999999999999991e-05
739 1 1.8661665943780488e-06 1000 1.9999999999999991e-05 -1.2000000000000004e-05 2.7999999999999996e-05
740 1 3.7458719314903511e-06 1000 1.9999999999999991e-05 -1.2000000000000004e-05 3.5999999999999987e-05
741 1 1.3837732614664436e-06 1000 1.9999999999999991e-05 -4.0000000000000024e-06 -3.6000000000000001e-05
742 1 5.1643339713431283e-06 1000 1.9999999999999991e-05 -4.0000000000000024e-06 -2.8000000000000003e-05
743 1 2.9237723126273556e-06 1000 1.9999999999999991e-05 -4.0000000000000024e-06 -2.0000000000000005e-05
744 1 3.5853765030712054e-06 1000 1.9999999999999991e-05 -4.0000000000000024e-06 -1.2000000000000004e-05
745 1 4.0473549028092499e-06 1000 1.9999999999999991e-05 -4.0000000000000024e-06 -4.0000000000000024e-06
746 1 2.0970954630058784e-06 1000 1.9999999999999991e-05 -4.0000000000000024e-06 3.9999999999999956e-06
747 1 3.1899758087314793e-06 1000 1.9999999999999991e-05 -4.0000000000000024e-06 1.1999999999999994e-05
748 1 2.0336639494731569e-06 1000 1.9999999999999991e-05 -4.0000000000000024e-06 1.9999999999999991e-05
749 1 2.3127393042766907e-06 1000 1.9999999999999991e-05 -4.0000000000000024e-06 2.7999999999999996e-05
750 1 2.2762666408232701e-06 1000 1.9999999999999991e-05 -4.0000000000000024e-06 3.5999999999999987e-05
751 1 3.1873161958766621e-06 1000 1.9999999999999991e-05 3.9999999999999956e-06 -3.6000000000000001e-05
752 1 2.3132215431957816e-06 1000 1.9999999999999991e-05 3.9999999999999956e-06 -2.8000000000000003e-05
753 1 2.8177338040905524e-06 1000 1.9999999999999991e-05 3.9999999999999956e-06 -2.0000000000000005e-05
754 1 1.5136919503141557e-06 1000 1.9999999999999991e-05 3.9999999999999956e-06 -1.2000000000000004e-05
755 1 2.1443060030997655e-06 1000 1.9999999999999991e-05 3.9999999999999956e-06 -4.0000000000000024e-06
756 1 3.8139835011969021e-06 1000 1.9999999999999991e-05 3.9999999999999956e-06 3.9999999999999956e-06
757 1 2.1192337400668004e-06 1000 1.9999999999999991e-05 3.9999999999999956e-06 1.1999999999999994e-05
758 1 3.1466613024537707e-06 1000 1.9999999999999991e-05 3.9999999999999956e-06 1.9999999999999991e-05
759 1 1.7728758691110609e-06 1000 1.9999999999999991e-05 3.9999999999999956e-06 2.7999999999999996e-05
760 1 2.1733637478719812e-06 1000 1.9999999999999991e-05 3.9999999999999956e-06 3.5999999999999987e-05
761 1 1.5933275506606368e-06 1000 1.9999999999999991e-05 1.1999999999999994e-05 -3.6000000000000001e-05
762 1 1.2964779682977502e-06 1000 1.9999999999999991e-05 1.1999999999999994e-05 -2.8000000000000003e-05
763 1 1.9436641382369865e-06 1000 1.9999999999999991e-05 1.1999999999999994e-05 -2.0000000000000005e-05
764 1 1.5447230637113653e-06 1000 1.9999999999999991e-05 1.1999999999999994e-05 -1.2000000000000004e-05
765 1 1.2302394635573504e-06 1000 1.9999999999999991e-05 1.1999999999999994e-05 -4.0000000000000024e-06
766 1 1.9766749789125325e-06 1000 1.9999999999999991e-05 1.1999999999999994e-05 3.9999999999999956e-06
767 1 3.5868870127143599e-06 1000 1.9999999999999991e-05 1.1999999999999994e-05 1.1999999999999994e-05
768 1 1.6505711023747137e-06 1000 1.9999999999999991e-05 1.1999999999999994e-05 1.9999999999999991e-05
769 1 2.5522726467905386e-06 1000 1.9999999999999991e-05 1.1999999999999994e-05 2.7999999999999996e-05
770 1 3.8870512826900893e-06 1000 1.9999999999999991e-05 1.1999999999999994e-05 3.5999999999999987e-05
771 1 1.3893418536852686e-06 1000 1.9999999999999991e-05 1.9999999999999991e-05 -3.6000000000000001e-05
772 1 2.2928994322747421e-06 1000 1.9999999999999991e-05 1.9999999999999991e-05 -2.8000000000000003e-05
773 1 3.9336971014784954e-06 1000 1.9999999999999991e-05 1.9999999999999991e-05 -2.0000000000000005e-05
774 1 1.2992586244007644e-06 1000 1.9999999999999991e-05 1.9999999999999991e-05 -1.2000000000000004e-05
775 1 1.7778811272412356e-06 1000 1.9999999999999991e-05 1.9999999999999991e-05 -4.0000000000000024e-06
776 1 2.1099334140622309e-06 1000 1.9999999999999991e-05 1.9999999999999991e-05 3.9999999999999956e-06
777 1 2.6392224571641432e-06 1000 1.9999999999999991e-05 1.9999999999999991e-05 1.1999999999999994e-05
778 1 2.5792280145307322e-06 1000 1.9999999999999991e-05 1.9999999999999991e-05 1.9999999999999991e-05
779 1 2.3230600929849828e-06 1000 1.9999999999999991e-05 1.9999999999999991e-05 2.7999999999999996e-05
780 1 1.2655588228375906e-06 1000 1.9999999999999991e-05 1.9999999999999991e-05 3.5999999999999987e-05
781 1 1.7958002912768503e-06 1000 1.9999999999999991e-05 2.7999999999999996e-05 -3.6000000000000001e-05
782 1 2.6954174046673083e-06 1000 1.9999999999999991e-05 2.7999999999999996e-05 -2.8000000000000003e-05
783 1 1.3628677433088584e-06 1000 1.9999999999999991e-05 2.7999999999999996e-05 -2.0000000000000005e-05
784 1 2.6721658409094417e-06 1000 1.9999999999999991e-05 2.7999999999999996e-05 -1.2000000000000004e-05
785 1 3.6679755477549264e-06 1000 1.9999999999999991e-05 2.7999999999999996e-05 -4.0000000000000024e-06
786 1 2.0763496722543141e-06 1000 1.9999999999999991e-05 2.7999999999999996e-05 3.9999999999999956e-06
787 1 2.1464363506322502e-06 1000 1.9999999999999991e-05 2.7999999999999996e-05 1.1999999999999994e-05
788 1 2.2598929582142344e-06 1000 1.9999999999999991e-05 2.7999999999999996e-05 1.9999999999999991e-05
789 1 1.88089428004097e-06 1000 1.9999999999999991e-05 2.7999999999999996e-05 2.7999999999999996e-05
790 1 2.2325709540221807e-06 1000 1.9999999999999991e-05 2.7999999999999996e-05 3.5999999999999987e-05
791 1 2.3664648649255467e-06 1000 1.9999999999999991e-05 3.5999999999999987e-05 -3.6000000000000001e-05
792 1 1.3736722927801664e-06 1000 1.9999999999999991e-05 3.5999999999999987e-05 -2.8000000000000003e-05
793 1 1.5176148565182105e-06 1000 1.9999999999999991e-05 3.5999999999999987e-05 -2.0000000000000005e-05
794 1 2.5811734846761791e-06 1000 1.9999999999999991e-05 3.5999999999999987e-05 -1.2000000000000004e-05
795 1 1.9677397406183061e-06 1000 1.9999999999999991e-05 3.5999999999999987e-05 -4.0000000000000024e-06
796 1 2.1939599190279178e-06 1000 1.9999999999999991e-05 3.5999999999999987e-05 3.9999999999999956e-06
797 1 2.1318763997640296e-06 1000 1.9999999999999991e-05 3.5999999999999987e-05 1.1999999999999994e-05
798 1 3.2925801085994709e-06 1000 1.9999999999999991e-05 3.5999999999999987e-05 1.9999999999999991e-05
799 1 1.4026405804590708e-06 1000 1.9999999999999991e-05 3.5999999999999987e-05 2.7999999999999996e-05
800 1 1.5140389380783372e-06 1000 1.9999999999999991e-05 3.5999999999999987e-05 3.5999999999999987e-05
801 1 1.5288200410852427e-06 1000 2.7999999999999996e-05 -3.6000000000000001e-05 -3.6000000000000001e-05
802 1 3.2520679719099562e-06 1000 2.7999999999999996e-05 -3.6000000000000001e-05 -2.8000000000000003e-05
803 1 1.6807215555417589e-06 1000 2.7999999999999996e-05 -3.6000000000000001e-05 -2.0000000000000005e-05
804 1 1.4770564400746289e-06 1000 2.7999999999999996e-05 -3.6000000000000001e-05 -1.2000000000000004e-05
805 1 1.9087313532327733e-06 1000 2.7999999999999996e-05 -3.6000000000000001e-05 -4.0000000000000024e-06
806 1 1.3128421195886192e-06 1000 2.7999999999999996e-05 -3.6000000000000001e-05 3.9999999999999956e-06
807 1 2.0344618424395657e-06 1000 2.7999999999999996e-05 -3.6000000000000001e-05 1.1999999999999994e-05
808 1 3.0433684673656951e-06 1000 2.7999999999999996e-05 -3.6000000000000001e-05 1.9999999999999991e-05
809 1 1.8180168178479896e-06 1000 2.7999999999999996e-05 -3.6000000000000001e-05 2.7999999999999996e-05
810 1 1.9175171357782359e-06 1000 2.7999999999999996e-05 -3.6000000000000001e-05 3.5999999999999987e-05
811 1 1.7656660773714692e-06 1000 2.7999999999999996e-05 -2.8000000000000003e-05 -3.6000000000000001e-05
812 1 1.9834688616906971e-06 1000 2.7999999999999996e-05 -2.8000000000000003e-05 -2.8000000000000003e-05
813 1 2.4524453331262024e-06 1000 2.7999999999999996e-05 -2.8000000000000003e-05 -2.0000000000000005e-05
814 1 2.2103517568280314e-06 1000 2.7999999999999996e-05 -2.8000000000000003e-05 -1.2000000000000004e-05
815 1 1.3347497315958013e-06 1000 2.7999999999999996e-05 -2.8000000000000003e-05 -4.0000000000000024e-06
816 1 1.9814617757572224e-06 1000 2.7999999999999996e-05 -2.8000000000000003e-05 3.9999999999999956e-06
817 1 1.9066302671711954e-06 1000 2.7999999999999996e-05 -2.8000000000000003e-05 1.1999999999999994e-05
818 1 1.0113919966687816e-06 1000 2.7999999999999996e-05 -2.8000000000000003e-05 1.9999999999999991e-05
819 1 1.8394593403275972e-06 1000 2.7999999999999996e-05 -2.8000000000000003e-05 2.7999999999999996e-05
820 1 1.2636395705062411e-06 1000 2.7999999999999996e-05 -2.8000000000000003e-05 3.5999999999999987e-05
821 1 1.2785328856558882e-06 1000 2.7999999999999996e-05 -2.0000000000000005e-05 -3.6000000000000001e-05
822 1 2.3986998544880478e-06 1000 2.7999999999999996e-05 -2.0000000000000005e-05 -2.8000000000000003e-05
823 1 1.6153672623089776e-06 1000 2.7999999999999996e-05 -2.0000000000000005e-05 -2.0000000000000005e-05
824 1 1.4565881128561534e-06 1000 2.7999999999999996e-05 -2.0000000000000005e-05 -1.2000000000000004e-05
825 1 1.3046395155376114e-06 1000 2.7999999999999996e-05 -2.0000000000000005e-05 -4.0000000000000024e-06
826 1 1.3842983887273509e-06 1000 2.7999999999999996e-05 -2.0000000000000005e-05 3.9999999999999956e-06
827 1 3.1050532154090046e-06 1000 2.7999999999999996e-05 -2.0000000000000005e-05 1.1999999999999994e-05
828 1 2.7881742724032407e-06 1000 2.7999999999999996e-05 -2.0000000000000005e-05 1.9999999999999991e-05
829 1 2.7873542870381996e-06 1000 2.7999999999999996e-05 -2.0000000000000005e-05 2.7999999999999996e-05
830 1 3.6754167969383316e-06 1000 2.7999999999999996e-05 -2.0000000000000005e-05 3.5999999999999987e-05
831 1 2.6502989760640225e-06 1000 2.7999999999999996e-05 -1.2000000000000004e-05 -3.6000000000000001e-05
832 1 2.7703131274180834e-06 1000 2.7999999999999996e-05 -1.2000000000000004e-05 -2.8000000000000003e-05
833 1 1.1843894090261679e-06 1000 2.7999999999999996e-05 -1.2000000000000004e-05 -2.0000000000000005e-05
834 1 1.3884087573420199e-06 1000 2.7999999999999996e-05 -1.2000000000000004e-05 -1.2000000000000004e-05
835 1 2.0931134796090258e-06 1000 2.7999999999999996e-05 -1.2000000000000004e-05 -4.0000000000000024e-06
836 1 1.5709022145098538e-06 1000 2.7999999999999996e-05 -1.2000000000000004e-05 3.9999999999999956e-06
837 1 2.291207266566436e-06 1000 2.7999999999999996e-05 -1.2000000000000004e-05 1.1999999999999994e-05
838 1 1.5687490315666619e-06 1000 2.7999999999999996e-05 -1.2000000000000004e-05 1.9999999999999991e-05
839 1 1.6202994315695917e-06 1000 2.7999999999999996e-05 -1.2000000000000004e-05 2.7999999999999996e-05
840 1 1.6586175643642543e-06 1000 2.7999999999999996e-05 -1.2000000000000004e-05 3.5999999999999987e-05
841 1 3.9656006225754603e-06 1000 2.7999999999999996e-05 -4.0000000000000024e-06 -3.6000000000000001e-05
842 1 2.2937733694500255e-06 1000 2.7999999999999996e-05 -4.0000000000000024e-06 -2.8000000000000003e-05
843 1 2.8954482219294083e-06 1000 2.7999999999999996e-05 -4.0000000000000024e-06 -2.0000000000000005e-05
844 1 3.010933931686592e-06 1000 2.7999999999999996e-05 -4.0000000000000024e-06 -1.2000000000000004e-05
845 1 2.1497254589482002e-06 1000 2.7999999999999996e-05 -4.0000000000000024e-06 -4.0000000000000024e-06
846 1 2.4089819162586641e-06 1000 2.7999999999999996e-05 -4.0000000000000024e-06 3.9999999999999956e-06
847 1 2.4869882629010491e-06 1000 2.7999999999999996e-05 -4.0000000000000024e-06 1.1999999999999994e-05
848 1 1.6635771363664636e-06 1000 2.7999999999999996e-05 -4.0000000000000024e-06 1.9999999999999991e-05
849 1 2.7189761915751899e-06 1000 2.7999999999999996e-05 -4.0000000000000024e-06 2.7999999999999996e-05
850 1 1.9857423936634905e-06 1000 2.7999999999999996e-05 -4.0000000000000024e-06 3.5999999999999987e-05
851 1 1.705645682225712e-06 1000 2.7999999999999996e-05 3.9999999999999956e-06 -3.6000000000000001e-05
852 1 1.8141758938474895e-06 1000 2.7999999999999996e-05 3.9999999999999956e-06 -2.8000000000000003e-05
853 1 2.3782813183150755e-06 1000 2.7999999999999996e-05 3.9999999999999956e-06 -2.0000000000000005e-05
854 1 8.921539944723351e-07 1000 2.7999999999999996e-05 3.9999999999999956e-06 -1.2000000000000004e-05
855 1 2.709675842169744e-06 1000 2.7999999999999996e-05 3.9999999999999956e-06 -4.0000000000000024e-06
856 1 1.0008042546485445e-06 1000 2.7999999999999996e-05 3.9999999999999956e-06 3.9999999999999956e-06
857 1 2.4891268586605767e-06 1000 2.7999999999999996e-05 3.9999999999999956e-06 1.1999999999999994e-05
858 1 1.5762222036762715e-06 1000 2.7999999999999996e-05 3.9999999999999956e-06 1.9999999999999991e-05
859 1 2.1931286001536037e-06 1000 2.7999999999999996e-05 3.9999999999999956e-06 2.7999999999999996e-05
860 1 1.7254564450292939e-06 1000 2.7999999999999996e-05 3.9999999999999956e-06 3.5999999999999987e-05
861 1 1.2302532302227318e-06 1000 2.7999999999999996e-05 1.1999999999999994e-05 -3.6000000000000001e-05
862 1 1.9142003506216468e-06 1000 2.7999999999999996e-05 1.1999999999999994e-05 -2.8000000000000003e-05
863 1 1.603561049895946e-06 1000 2.7999999999999996e-05 1.1999999999999994e-05 -2.0000000000000005e-05
864 1 2.3495854126709589e-06 1000 2.7999999999999996e-05 1.1999999999999994e-05 -1.2000000000000004e-05
865 1 1.643712640379044e-06 1000 2.7999999999999996e-05 1.1999999999999994e-05 -4.0000000000000024e-06
866 1 2.3396803766320096e-06 1000 2.7999999999999996e-05 1.1999999999999994e-05 3.9999999999999956e-06
867 1 1.7199285183615344e-06 1000 2.7999999999999996e-05 1.1999999999999994e-05 1.1999999999999994e-05
868 1 1.8075037108339482e-06 1000 2.7999999999999996e-05 1.1999999999999994e-05 1.9999999999999991e-05
869 1 1.691804739203171e-06 1000 2.7999999999999996e-05 1.1999999999999994e-05 2.7999999999999996e-05
870 1 1.3554677432452198e-06 1000 2.7999999999999996e-05 1.1999999999999994e-05 3.5999999999999987e-05
871 1 1.3162402673063526e-06 1000 2.7999999999999996e-05 1.9999999999999991e-05 -3.6000000000000001e-05
872 1 1.8943124618880473e-06 1000 2.7999999999999996e-05 1.9999999999999991e-05 -2.8000000000000003e-05
873 1 1.7446417013757645e-06 1000 2.7999999999999996e-05 1.9999999999999991e-05 -2.0000000000000005e-05
874 1 2.6606090963525473e-06 1000 2.7999999999999996e-05 1.9999999999999991e-05 -1.2000000000000004e-05
875 1 1.4589817763149314e-06 1000 2.7999999999999996e-05 1.9999999999999991e-05 -4.0000000000000024e-06
876 1 1.9405643896678647e-06 1000 2.7999999999999996e-05 1.9999999999999991e-05 3.9999999999999956e-06
877 1 3.4518664832040718e-06 1000 2.7999999999999996e-05 1.9999999999999991e-05 1.1999999999999994e-05
878 1 1.5144521526855962e-06 1000 2.7999999999999996e-05 1.9999999999999991e-05 1.9999999999999991e-05
879 1 2.3169441549445473e-06 1000 2.7999999999999996e-05 1.9999999999999991e-05 2.7999999999999996e-05
880 1 1.9544386503906593e-06 1000 2.7999999999999996e-05 1.9999999999999991e-05 3.5999999999999987e-05
881 1 1.3381471008600657e-06 1000 2.7999999999999996e-05 2.7999999999999996e-05 -3.6000000000000001e-05
882 1 3.1513410156959447e-06 1000 2.7999999999999996e-05 2.7999999999999996e-05 -2.8000000000000003e-05
883 1 2.7343110818085223e-06 1000 2.7999999999999996e-05 2.7999999999999996e-05 -2.0000000000000005e-05
884 1 1.4942943236509242e-06 1000 2.7999999999999996e-05 2.7999999999999996e-05 -1.2000000000000004e-05
885 1 1.1342169163345158e-06 1000 2.7999999999999996e-05 2.7999999999999996e-05 -4.0000000000000024e-06
886 1 2.5303590076986036e-06 1000 2.7999999999999996e-05 2.7999999999999996e-05 3.9999999999999956e-06
887 1 2.5370599438944112e-06 1000 2.7999999999999996e-05 2.7999999999999996e-05 1.1999999999999994e-05
888 1 2.0093233265474273e-06 1000 2.7999999999999996e-05 2.7999999999999996e-05 1.9999999999999991e-05
889 1 1.606761726669744e-06 1000 2.7999999999999996e-05 2.7999999999999996e-05 2.7999999999999996e-05
890 1 1.7526749520910882e-06 1000 2.7999999999999996e-05 2.7999999999999996e-05 3.5999999999999987e-05
891 1 1.3676298403068712e-06 1000 2.7999999999999996e-05 3.5999999999999987e-05 -3.6000000000000001e-05
892 1 1.9554239212310721e-06 1000 2.7999999999999996e-05 3.5999999999999987e-05 -2.8000000000000003e-05
893 1 1.7453211883936622e-06 1000 2.7999999999999996e-05 3.5999999999999987e-05 -2.0000000000000005e-05
894 1 1.3433740857041237e-06 1000 2.7999999999999996e-05 3.5999999999999987e-05 -1.2000000000000004e-05
895 1 1.8367965121468236e-06 1000 2.7999999999999996e-05 3.5999999999999987e-05 -4.0000000000000024e-06
896 1 1.1720789377370107e-06 1000 2.7999999999999996e-05 3.5999999999999987e-05 3.9999999999999956e-06
897 1 2.2356750193667265e-06 1000 2.7999999999999996e-05 3.5999999999999987e-05 1.1999999999999994e-05
898 1 2.1650350584928744e-06 1000 2.7999999999999996e-05 3.5999999999999987e-05 1.9999999999999991e-05
899 1 2.0817834637436428e-06 1000 2.7999999999999996e-05 3.5999999999999987e-05 2.7999999999999996e-05
900 1 1.8421492471316917e-06 1000 2.7999999999999996e-05 3.5999999999999987e-05 3.5999999999999987e-05
901 1 1.6741093785165795e-06 1000 3.5999999999999987e-05 -3.6000000000000001e-05 -3.6000000000000001e-05
902 1 1.4066090571625892e-06 1000 3.5999999999999987e-05 -3.6000000000000001e-05 -2.8000000000000003e-05
903 1 3.4888977222314693e-06 1000 3.5999999999999987e-05 -3.6000000000000001e-05 -2.0000000000000005e-05
904 1 1.9997844841183427e-06 1000 3.5999999999999987e-05 -3.6000000000000001e-05 -1.2000000000000004e-05
905 1 1.3609690074357227e-06 1000 3.5999999999999987e-05 -3.6000000000000001e-05 -4.0000000000000024e-06
906 1 2.0415884067782528e-06 1000 3.5999999999999987e-05 -3.6000000000000001e-05 3.9999999999999956e-06
907 1 1.6807086910570684e-06 1000 3.5999999999999987e-05 -3.6000000000000001e-05 1.1999999999999994e-05
908 1 2.2669422143260758e-06 1000 3.5999999999999987e-05 -3.6000000000000001e-05 1.9999999999999991e-05
909 1 2.1784043053008598e-06 1000 3.5999999999999987e-05 -3.6000000000000001e-05 2.7999999999999996e-05
910 1 1.1864469662013441e-06 1000 3.5999999999999987e-05 -3.6000000000000001e-05 3.5999999999999987e-05
911 1 1.7622901368455437e-06 1000 3.5999999999999987e-05 -2.8000000000000003e-05 -3.6000000000000001e-05
912 1 1.7309016342733958e-06 1000 3.5999999999999987e-05 -2.8000000000000003e-05 -2.8000000000000003e-05
913 1 2.9676941644738154e-06 1000 3.5999999999999987e-05 -2.8000000000000003e-05 -2.0000000000000005e-05
914 1 3.4456713355565817e-06 1000 3.5999999999999987e-05 -2.8000000000000003e-05 -1.2000000000000004e-05
915 1 2.2035740783337841e-06 1000 3.5999999999999987e-05 -2.8000000000000003e-05 -4.0000000000000024e-06
916 1 1.7116788389388496e-06 1000 3.5999999999999987e-05 -2.8000000000000003e-05 3.9999999999999956e-06
917 1 1.372002391541894e-06 1000 3.5999999999999987e-05 -2.8000000000000003e-05 1.1999999999999994e-05
918 1 1.4932385241498221e-06 1000 3.5999999999999987e-05 -2.8000000000000003e-05 1.9999999999999991e-05
919 1 2.8356415659917815e-06 1000 3.5999999999999987e-05 -2.8000000000000003e-05 2.7999999999999996e-05
920 1 1.3861295064702962e-06 1000 3.5999999999999987e-05 -2.8000000000000003e-05 3.5999999999999987e-05
921 1 1.845212175280861e-06 1000 3.5999999999999987e-05 -2.0000000000000005e-05 -3.6000000000000001e-05
922 1 1.4384804311000883e-06 1000 3.5999999999999987e-05 -2.0000000000000005e-05 -2.8000000000000003e-05
923 1 1.8309303600286578e-06 1000 3.5999999999999987e-05 -2.0000000000000005e-05 -2.0000000000000005e-05
924 1 2.0369649720020834e-06 1000 3.5999999999999987e-05 -2.0000000000000005e-05 -1.2000000000000004e-05
925 1 1.2681172279007341e-06 1000 3.5999999999999987e-05 -2.0000000000000005e-05 -4.0000000000000024e-06
926 1 1.8052442599971658e-06 1000 3.5999999999999987e-05 -2.0000000000000005e-05 3.9999999999999956e-06
927 1 3.6369470930568832e-06 1000 3.5999999999999987e-05 -2.0000000000000005e-05 1.1999999999999994e-05
928 1 3.9977678943152706e-06 1000 3.5999999999999987e-05 -2.0000000000000005e-05 1.9999999999999991e-05
929 1 1.6752054574566133e-06 1000 3.5999999999999987e-05 -2.0000000000000005e-05 2.7999999999999996e-05
930 1 1.6643484220976796e-06 1000 3.5999999999999987e-05 -2.0000000000000005e-05 3.5999999999999987e-05
931 1 2.050135036705258e-06 1000 3.5999999999999987e-05 -1.2000000000000004e-05 -3.6000000000000001e-05
932 1 1.3104661889006912e-06 1000 3.5999999999999987e-05 -1.2000000000000004e-05 -2.8000000000000003e-05
933 1 1.8604720860159418e-06 1000 3.5999999999999987e-05 -1.2000000000000004e-05 -2.0000000000000005e-05
934 1 1.0596218753395781e-06 1000 3.5999999999999987e-05 -1.2000000000000004e-05 -1.2000000000000004e-05
935 1 1.5828797650114929e-06 1000 3.5999999999999987e-05 -1.2000000000000004e-05 -4.0000000000000024e-06
936 1 1.8572361715644293e-06 1000 3.5999999999999987e-05 -1.2000000000000004e-05 3.9999999999999956e-06
937 1 2.1909343244779672e-06 1000 3.5999999999999987e-05 -1.2000000000000004e-05 1.1999999999999994e-05
938 1 9.8923908077164625e-07 1000 3.5999999999999987e-05 -1.2000000000000004e-05 1.9999999999999991e-05
939 1 1.9943796262405484e-06 1000 3.5999999999999987e-05 -1.2000000000000004e-05 2.7999999999999996e-05
940 1 2.1462913786561464e-06 1000 3.5999999999999987e-05 -1.2000000000000004e-05 3.5999999999999987e-05
941 1 1.2366447078543886e-06 1000 3.5999999999999987e-05 -4.0000000000000024e-06 -3.6000000000000001e-05
942 1 1.5846453520085959e-06 1000 3.5999999999999987e-05 -4.0000000000000024e-06 -2.8000000000000003e-05
943 1 2.090087547842132e-06 1000 3.5999999999999987e-05 -4.0000000000000024e-06 -2.0000000000000005e-05
944 1 2.1547450525091941e-06 1000 3.5999999999999987e-05 -4.0000000000000024e-06 -1.2000000000000004e-05
945 1 1.8211212883692451e-06 1000 3.5999999999999987e-05 -4.0000000000000024e-06 -4.0000000000000024e-06
946 1 1.8529034718441074e-06 1000 3.5999999999999987e-05 -4.0000000000000024e-06 3.9999999999999956e-06
947 1 1.8808362172384493e-06 1000 3.5999999999999987e-05 -4.0000000000000024e-06 1.1999999999999994e-05
948 1 1.8585627610312498e-06 1000 3.5999999999999987e-05 -4.0000000000000024e-06 1.9999999999999991e-05
949 1 1.5103529046132578e-06 1000 3.5999999999999987e-05 -4.0000000000000024e-06 2.7999999999999996e-05
950 1 2.4820417742363207e-06 1000 3.5999999999999987e-05 -4.0000000000000024e-06 3.5999999999999987e-05
951 1 3.0883663354100024e-06 1000 3.5999999999999987e-05 3.9999999999999956e-06 -3.6000000000000001e-05
952 1 2.4172196993627519e-06 1000 3.5999999999999987e-05 3.9999999999999956e-06 -2.8000000000000003e-05
953 1 2.2036994338752228e-06 1000 3.5999999999999987e-05 3.9999999999999956e-06 -2.0000000000000005e-05
954 1 1.4301405534572505e-06 1000 3.5999999999999987e-05 3.9999999999999956e-06 -1.2000000000000004e-05
955 1 1.6207068529999303e-06 1000 3.5999999999999987e-05 3.9999999999999956e-06 -4.0000000000000024e-06
956 1 1.1577170808590325e-06 1000 3.5999999999999987e-05 3.9999999999999956e-06 3.9999999999999956e-06
957 1 1.2812762650215954e-06 1000 3.5999999999999987e-05 3.9999999999999956e-06 1.1999999999999994e-05
958 1 1.6812183381141014e-06 1000 3.5999999999999987e-05 3.9999999999999956e-06 1.9999999999999991e-05
959 1 1.9877804957340344e-06 1000 3.5999999999999987e-05 3.9999999999999956e-06 2.7999999999999996e-05
960 1 1.7458876052660769e-06 1000 3.5999999999999987e-05 3.9999999999999956e-06 3.5999999999999987e-05
961 1 2.8808651058087722e-06 1000 3.5999999999999987e-05 1.1999999999999994e-05 -3.6000000000000001e-05
962 1 1.9946429254413695e-06 1000 3.5999999999999987e-05 1.1999999999999994e-05 -2.8000000000000003e-05
963 1 2.6515598551523595e-06 1000 3.5999999999999987e-05 1.1999999999999994e-05 -2.0000000000000005e-05
964 1 2.0843346861950314e-06 1000 3.5999999999999987e-05 1.1999999999999994e-05 -1.2000000000000004e-05
965 1 1.2311599707052219e-06 1000 3.5999999999999987e-05 1.1999999999999994e-05 -4.0000000000000024e-06
966 1 1.6083754095908063e-06 1000 3.5999999999999987e-05 1.1999999999999994e-05 3.9999999999999956e-06
967 1 2.2117469619257193e-06 1000 3.5999999999999987e-05 1.1999999999999994e-05 1.1999999999999994e-05
968 1 1.3429506467891236e-06 1000 3.5999999999999987e-05 1.1999999999999994e-05 1.9999999999999991e-05
969 1 1.859912014367879e-06 1000 3.5999999999999987e-05 1.1999999999999994e-05 2.7999999999999996e-05
970 1 3.1231651209418101e-06 1000 3.5999999999999987e-05 1.1999999999999994e-05 3.5999999999999987e-05
971 1 2.6540340181740143e-06 1000 3.5999999999999987e-05 1.9999999999999991e-05 -3.6000000000000001e-05
972 1 1.6325837069028243e-06 1000 3.5999999999999987e-05 1.9999999999999991e-05 -2.8000000000000003e-05
973 1 1.0672455074737749e-06 1000 3.5999999999999987e-05 1.9999999999999991e-05 -2.0000000000000005e-05
974 1 1.6206481208826622e-06 1000 3.5999999999999987e-05 1.9999999999999991e-05 -1.2000000000000004e-05
975 1 1.9814518342590832e-06 1000 3.5999999999999987e-05 1.9999999999999991e-05 -4.0000000000000024e-06
976 1 1.4567690209463027e-06 1000 3.5999999999999987e-05 1.9999999999999991e-05 3.9999999999999956e-06
977 1 1.8329810054199902e-06 1000 3.5999999999999987e-05 1.9999999999999991e-05 1.1999999999999994e-05
978 1 1.1000226469480124e-06 1000 3.5999999999999987e-05 1.9999999999999991e-05 1.9999999999999991e-05
979 1 2.1839234858535288e-06 1000 3.5999999999999987e-05 1.9999999999999991e-05 2.7999999999999996e-05
980 1 1.286296931103056e-06 1000 3.5999999999999987e-05 1.9999999999999991e-05 3.5999999999999987e-05
981 1 2.8878068424174468e-06 1000 3.5999999999999987e-05 2.7999999999999996e-05 -3.6000000000000001e-05
982 1 1.2580686687944073e-06 1000 3.5999999999999987e-05 2.7999999999999996e-05 -2.8000000000000003e-05
983 1 1.7321992338854897e-06 1000 3.5999999999999987e-05 2.7999999999999996e-05 -2.0000000000000005e-05
984 1 2.4382894221758927e-06 1000 3.5999999999999987e-05 2.7999999999999996e-05 -1.2000000000000004e-05
985 1 2.0264531657053335e-06 1000 3.5999999999999987e-05 2.7999999999999996e-05 -4.0000000000000024e-06
986 1 1.3120119464931615e-06 1000 3.5999999999999987e-05 2.7999999999999996e-05 3.9999999999999956e-06
987 1 2.7557237112288758e-06 1000 3.5999999999999987e-05 2.7999999999999996e-05 1.1999999999999994e-05
988 1 2.1430875672507973e-06 1000 3.5999999999999987e-05 2.7999999999999996e-05 1.9999999999999991e-05
989 1 1.2535009683405528e-06 1000 3.5999999999999987e-05 2.7999999999999996e-05 2.7999999999999996e-05
990 1 1.4149569048441568e-06 1000 3.5999999999999987e-05 2.7999999999999996e-05 3.5999999999999987e-05
991 1 9.3555568948870781e-07 1000 3.5999999999999987e-05 3.5999999999999987e-05 -3.6000000000000001e-05
992 1 2.3857000090422197e-06 1000 3.5999999999999987e-05 3.5999999999999987e-05 -2.8000000000000003e-05
993 1 2.5427247268262852e-06 1000 3.5999999999999987e-05 3.5999999999999987e-05 -2.0000000000000005e-05
994 1 1.4728647211065732e-06 1000 3.5999999999999987e-05 3.5999999999999987e-05 -1.2000000000000004e-05
995 1 2.6582912608838709e-06 1000 3.5999999999999987e-05 3.5999999999999987e-05 -4.0000000000000024e-06
996 1 1.8428575322196899e-06 1000 3.5999999999999987e-05 3.5999999999999987e-05 3.9999999999999956e-06
997 1 2.9423269055856041e-06 1000 3.5999999999999987e-05 3.5999999999999987e-05 1.1999999999999994e-05
998 1 1.9541473510775281e-06 1000 3.5999999999999987e-05 3.5999999999999987e-05 1.9999999999999991e-05
999 1 1.4903865244557403e-06 1000 3.5999999999999987e-05 3.5999999999999987e-05 2.7999999999999996e-05
1000 1 2.3236548878116141e-06 1000 3.5999999999999987e-05 3.5999999999999987e-05 3.5999999999999987e-05

Velocities

1 0 0 0 0 0 0
2 0 0 0 0 0 0
3 0 0 0 0 0 0
4 0 0 0 0 0 0
5 0 0 0 0 0 0
6 0 0 0 0 0 0
7 0 0 0 0 0 0
8 0 0 0 0 0 0
9 0 0 0 0 0 0
10 0 0 0 0 0 0
11 0 0 0 0 0 0
12 0 0 0 0 0 0
13 0 0 0 0 0 0
14 0 0 0 0 0 0
15 0 0 0 0 0 0
16 0 0 0 0 0 0
17 0 0 0 0 0 0
18 0 0 0 0 0 0
19 0 0 0 0 0 0
20 0 0 0 0 0 0
21 0 0 0 0 0 0
22 0 0 0 0 0 0
23 0 0 0 0 0 0
24 0 0 0 0 0 0
25 0 0 0 0 0 0
26 0 0 0 0 0 0
27 0 0 0 0 0 0
28 0 0 0 0 0 0
29 0 0 0 0 0 0
30 0 0 0 0 0 0
31 0 0 0 0 0 0
32 0 0 0 0 0 0
33 0 0 0 0 0 0
34 0 0 0 0 0 0
35 0 0 0 0 0 0
36 0 0 0 0 0 0
37 0 0 0 0 0 0
38 0 0 0 0 0 0
39 0 0 0 0 0 0
40 0 0 0 0 0 0
41 0 0 0 0 0 0
42 0 0 0 0 0 0
43 0 0 0 0 0 0
44 0 0 0 0 0 0
45 0 0 0 0 0 0
46 0 0 0 0 0 0
47 0 0 0 0 0 0
48 0 0 0 0 0 0
49 0 0 0 0 0 0
50 0 0 0 0 0 0
51 0 0 0 0 0 0
52 0 0 0 0 0 0
53 0 0 0 0 0 0
54 0 0 0 0 0 0
55 0 0 0 0 0 0
56 0 0 0 0 0 0
57 0 0 0 0 0 0
58 0 0 0 0 0 0
59 0 0 0 0 0 0
60 0 0 0 0 0 0
61 0 0 0 0 0 0
62 0 0 0 0 0 0
63 0 0 0 0 0 0
64 0 0 0 0 0 0
65 0 0 0 0 0 0
66 0 0 0 0 0 0
67 0 0 0 0 0 0
68 0 0 0 0 0 0
69 0 0 0 0 0 0
70 0 0 0 0 0 0
71 0 0 0 0 0 0
72 0 0 0 0 0 0
73 0 0 0 0 0 0
74 0 0 0 0 0 0
75 0 0 0 0 0 0
76 0 0 0 0 0 0
77 0 0 0 0 0 0
78 0 0 0 0 0 0
79 0 0 0 0 0 0
80 0 0 0 0 0 0
81 0 0 0 0 0 0
82 0 0 0 0 0 0
83 0 0 0 0 0 0
84 0 0 0 0 0 0
85 0 0 0 0 0 0
86 0 0 0 0 0 0
87 0 0 0 0 0 0
88 0 0 0 0 0 0
89 0 0 0 0 0 0
90 0 0 0 0 0 0
91 0 0 0 0 0 0
92 0 0 0 0 0 0
93 0 0 0 0 0 0
94 0 0 0 0 0 0
95 0 0 0 0 0 0
96 0 0 0 0 0 0
97 0 0 0 0 0 0
98 0 0 0 0 0 0
99 0 0 0 0 0 0
100 0 0 0 0 0 0
101 0 0 0 0 0 0
102 0 0 0 0 0 0
103 0 0 0 0 0 0
104 0 0 0 0 0 0
105 0 0 0 0 0 0
106 0 0 0 0 0 0
107 0 0 0 0 0 0
108 0 0 0 0 0 0
109 0 0 0 0 0 0
110 0 0 0 0 0 0
111 0 0 0 0 0 0
112 0 0 0 0 0 0
113 0 0 0 0 0 0
114 0 0 0 0 0 0
115 0 0 0 0 0 0
116 0 0 0 0 0 0
117 0 0 0 0 0 0
118 0 0 0 0 0 0
119 0 0 0 0 0 0
120 0 0 0 0 0 0
121 0 0 0 0 0 0
122 0 0 0 0 0 0
123 0 0 0 0 0 0
124 0 0 0 0 0 0
125 0 0 0 0 0 0
126 0 0 0 0 0 0
127 0 0 0 0 0 0
128 0 0 0 0 0 0
129 0 0 0 0 0 0
130 0 0 0 0 0 0
131 0 0 0 0 0 0
132 0 0 0 0 0 0
133 0 0 0 0 0 0
134 0 0 0 0 0 0
135 0 0 0 0 0 0
136 0 0 0 0 0 0
137 0 0 0 0 0 0
138 0 0 0 0 0 0
139 0 0 0 0 0 0
140 0 0 0 0 0 0
141 0 0 0 0 0 0
142 0 0 0 0 0 0
143 0 0 0 0 0 0
144 0 0 0 0 0 0
145 0 0 0 0 0 0
146 0 0 0 0 0 0
147 0 0 0 0 0 0
148 0 0 0 0 0 0
149 0 0 0 0 0 0
150 0 0 0 0 0 0
151 0 0 0 0 0 0
152 0 0 0 0 0 0
153 0 0 0 0 0 0
154 0 0 0 0 0 0
155 0 0 0 0 0 0
156 0 0 0 0 0 0
157 0 0 0 0 0 0
158 0 0 0 0 0 0
159 0 0 0 0 0 0
160 0 0 0 0 0 0
161 0 0 0 0 0 0
162 0 0 0 0 0 0
163 0 0 0 0 0 0
164 0 0 0 0 0 0
165 0 0 0 0 0 0
166 0 0 0 0 0 0
167 0 0 0 0 0 0
168 0 0 0 0 0 0
169 0 0 0 0 0 0
170 0 0 0 0 0 0
171 0 0 0 0 0 0
172 0 0 0 0 0 0
173 0 0 0 0 0 0
174 0 0 0 0 0 0
175 0 0 0 0 0 0
176 0 0 0 0 0 0
177 0 0 0 0 0 0
178 0 0 0 0 0 0
179 0 0 0 0 0 0
180 0 0 0 0 0 0
181 0 0 0 0 0 0
182 0 0 0 0 0 0
183 0 0 0 0 0 0
184 0 0 0 0 0 0
185 0 0 0 0 0 0
186 0 0 0 0 0 0
187 0 0 0 0 0 0
188 0 0 0 0 0 0
189 0 0 0 0 0 0
190 0 0 0 0 0 0
191 0 0 0 0 0 0
192 0 0 0 0 0 0
193 0 0 0 0 0 0
194 0 0 0 0 0 0
195 0 0 0 0 0 0
196 0 0 0 0 0 0
197 0 0 0 0 0 0
198 0 0 0 0 0 0
199 0 0 0 0 0 0
200 0 0 0 0 0 0
201 0 0 0 0 0 0
202 0 0 0 0 0 0
203 0 0 0 0 0 0
204 0 0 0 0 0 0
205 0 0 0 0 0 0
206 0 0 0 0 0 0
207 0 0 0 0 0 0
208 0 0 0 0 0 0
209 0 0 0 0 0 0
210 0 0 0 0 0 0
211 0 0 0 0 0 0
212 0 0 0 0 0 0
213 0 0 0 0 0 0
214 0 0 0 0 0 0
215 0 0 0 0 0 0
216 0 0 0 0 0 0
217 0 0 0 0 0 0
218 0 0 0 0 0 0
219 0 0 0 0 0 0
220 0 0 0 0 0 0
221 0 0 0 0 0 0
222 0 0 0 0 0 0
223 0 0 0 0 0 0
224 0 0 0 0 0 0
225 0 0 0 0 0 0
226 0 0 0 0 0 0
227 0 0 0 0 0 0
228 0 0 0 0 0 0
229 0 0 0 0 0 0
230 0 0 0 0 0 0
231 0 0 0 0 0 0
232 0 0 0 0 0 0
233 0 0 0 0 0 0
234 0 0 0 0 0 0
235 0 0 0 0 0 0
236 0 0 0 0 0 0
237 0 0 0 0 0 0
238 0 0 0 0 0 0
239 0 0 0 0 0 0
240 0 0 0 0 0 0
241 0 0 0 0 0 0
242 0 0 0 0 0 0
243 0 0 0 0 0 0
244 0 0 0 0 0 0
245 0 0 0 0 0 0
246 0 0 0 0 0 0
247 0 0 0 0 0 0
248 0 0 0 0 0 0
249 0 0 0 0 0 0
250 0 0 0 0 0 0
251 0 0 0 0 0 0
252 0 0 0 0 0 0
253 0 0 0 0 0 0
254 0 0 0 0 0 0
255 0 0 0 0 0 0
256 0 0 0 0 0 0
257 0 0 0 0 0 0
258 0 0 0 0 0 0
259 0 0 0 0 0 0
260 0 0 0 0 0 0
261 0 0 0 0 0 0
262 0 0 0 0 0 0
263 0 0 0 0 0 0
264 0 0 0 0 0 0
265 0 0 0 0 0 0
266 0 0 0 0 0 0
267 0 0 0 0 0 0
268 0 0 0 0 0 0
269 0 0 0 0 0 0
270 0 0 0 0 0 0
271 0 0 0 0 0 0
272 0 0 0 0 0 0
273 0 0 0 0 0 0
274 0 0 0 0 0 0
275 0 0 0 0 0 0
276 0 0 0 0 0 0
277 0 0 0 0 0 0
278 0 0 0 0 0 0
279 0 0 0 0 0 0
280 0 0 0 0 0 0
281 0 0 0 0 0 0
282 0 0 0 0 0 0
283 0 0 0 0 0 0
284 0 0 0 0 0 0
285 0 0 0 0 0 0
286 0 0 0 0 0 0
287 0 0 0 0 0 0
288 0 0 0 0 0 0
289 0 0 0 0 0 0
290 0 0 0 0 0 0
291 0 0 0 0 0 0
292 0 0 0 0 0 0
293 0 0 0 0 0 0
294 0 0 0 0 0 0
295 0 0 0 0 0 0
296 0 0 0 0 0 0
297 0 0 0 0 0 0
298 0 0 0 0 0 0
299 0 0 0 0 0 0
300 0 0 0 0 0 0
301 0 0 0 0 0 0
302 0 0 0 0 0 0
303 0 0 0 0 0 0
304 0 0 0 0 0 0
305 0 0 0 0 0 0
306 0 0 0 0 0 0
307 0 0 0 0 0 0
308 0 0 0 0 0 0
309 0 0 0 0 0 0
310 0 0 0 0 0 0
311 0 0 0 0 0 0
312 0 0 0 0 0 0
313 0 0 0 0 0 0
314 0 0 0 0 0 0
315 0 0 0 0 0 0
316 0 0 0 0 0 0
317 0 0 0 0 0 0
318 0 0 0 0 0 0
319 0 0 0 0 0 0
320 0 0 0 0 0 0
321 0 0 0 0 0 0
322 0 0 0 0 0 0
323 0 0 0 0 0 0
324 0 0 0 0 0 0
325 0 0 0 0 0 0
326 0 0 0 0 0 0
327 0 0 0 0 0 0
328 0 0 0 0 0 0
329 0 0 0 0 0 0
330 0 0 0 0 0 0
331 0 0 0 0 0 0
332 0 0 0 0 0 0
333 0 0 0 0 0 0
334 0 0 0 0 0 0
335 0 0 0 0 0 0
336 0 0 0 0 0 0
337 0 0 0 0 0 0
338 0 0 0 0 0 0
339 0 0 0 0 0 0
340 0 0 0 0 0 0
341 0 0 0 0 0 0
342 0 0 0 0 0 0
343 0 0 0 0 0 0
344 0 0 0 0 0 0
345 0 0 0 0 0 0
346 0 0 0 0 0 0
347 0 0 0 0 0 0
348 0 0 0 0 0 0
349 0 0 0 0 0 0
350 0 0 0 0 0 0
351 0 0 0 0 0 0
352 0 0 0 0 0 0
353 0 0 0 0 0 0
354 0 0 0 0 0 0
355 0 0 0 0 0 0
356 0 0 0 0 0 0
357 0 0 0 0 0 0
358 0 0 0 0 0 0
359 0 0 0 0 0 0
360 0 0 0 0 0 0
361 0 0 0 0 0 0
362 0 0 0 0 0 0
363 0 0 0 0 0 0
364 0 0 0 0 0 0
365 0 0 0 0 0 0
366 0 0 0 0 0 0
367 0 0 0 0 0 0
368 0 0 0 0 0 0
369 0 0 0 0 0 0
370 0 0 0 0 0 0
371 0 0 0 0 0 0
372 0 0 0 0 0 0
373 0 0 0 0 0 0
374 0 0 0 0 0 0
375 0 0 0 0 0 0
376 0 0 0 0 0 0
377 0 0 0 0 0 0
378 0 0 0 0 0 0
379 0 0 0 0 0 0
380 0 0 0 0 0 0
381 0 0 0 0 0 0
382 0 0 0 0 0 0
383 0 0 0 0 0 0
384 0 0 0 0 0 0
385 0 0 0 0 0 0
386 0 0 0 0 0 0
387 0 0 0 0 0 0
388 0 0 0 0 0 0
389 0 0 0 0 0 0
390 0 0 0 0 0 0
391 0 0 0 0 0 0
392 0 0 0 0 0 0
393 0 0 0 0 0 0
394 0 0 0 0 0 0
395 0 0 0 0 0 0
396 0 0 0 0 0 0
397 0 0 0 0 0 0
398 0 0 0 0 0 0
399 0 0 0 0 0 0
400 0 0 0 0 0 0
401 0 0 0 0 0 0
402 0 0 0 0 0 0
403 0 0 0 0 0 0
404 0 0 0 0 0 0
405 0 0 0 0 0 0
406 0 0 0 0 0 0
407 0 0 0 0 0 0
408 0 0 0 0 0 0
409 0 0 0 0 0 0
410 0 0 0 0 0 0
411 0 0 0 0 0 0
412 0 0 0 0 0 0
413 0 0 0 0 0 0
414 0 0 0 0 0 0
415 0 0 0 0 0 0
416 0 0 0 0 0 0
417 0 0 0 0 0 0
418 0 0 0 0 0 0
419 0 0 0 0 0 0
420 0 0 0 0 0 0
421 0 0 0 0 0 0
422 0 0 0 0 0 0
423 0 0 0 0 0 0
424 0 0 0 0 0 0
425 0 0 0 0 0 0
426 0 0 0 0 0 0
427 0 0 0 0 0 0
428 0 0 0 0 0 0
429 0 0 0 0 0 0
430 0 0 0 0 0 0
431 0 0 0 0 0 0
432 0 0 0 0 0 0
433 0 0 0 0 0 0
434 0 0 0 0 0 0
435 0 0 0 0 0 0
436 0 0 0 0 0 0
437 0 0 0 0 0 0
438 0 0 0 0 0 0
439 0 0 0 0 0 0
440 0 0 0 0 0 0
441 0 0 0 0 0 0
442 0 0 0 0 0 0
443 0 0 0 0 0 0
444 0 0 0 0 0 0
445 0 0 0 0 0 0
446 0 0 0 0 0 0
447 0 0 0 0 0 0
448 0 0 0 0 0 0
449 0 0 0 0 0 0
450 0 0 0 0 0 0
451 0 0 0 0 0 0
452 0 0 0 0 0 0
453 0 0 0 0 0 0
454 0 0 0 0 0 0
455 0 0 0 0 0 0
456 0 0 0 0 0 0
457 0 0 0 0 0 0
458 0 0 0 0 0 0
459 0 0 0 0 0 0
460 0 0 0 0 0 0
461 0 0 0 0 0 0
462 0 0 0 0 0 0
463 0 0 0 0 0 0
464 0 0 0 0 0 0
465 0 0 0 0 0 0
466 0 0 0 0 0 0
467 0 0 0 0 0 0
468 0 0 0 0 0 0
469 0 0 0 0 0 0
470 0 0 0 0 0 0
471 0 0 0 0 0 0
472 0 0 0 0 0 0
473 0 0 0 0 0 0
474 0 0 0 0 0 0
475 0 0 0 0 0 0
476 0 0 0 0 0 0
477 0 0 0 0 0 0
478 0 0 0 0 0 0
479 0 0 0 0 0 0
480 0 0 0 0 0 0
481 0 0 0 0 0 0
482 0 0 0 0 0 0
483 0 0 0 0 0 0
484 0 0 0 0 0 0
485 0 0 0 0 0 0
486 0 0 0 0 0 0
487 0 0 0 0 0 0
488 0 0 0 0 0 0
489 0 0 0 0 0 0
490 0 0 0 0 0 0
491 0 0 0 0 0 0
492 0 0 0 0 0 0
493 0 0 0 0 0 0
494 0 0 0 0 0 0
495 0 0 0 0 0 0
496 0 0 0 0 0 0
497 0 0 0 0 0 0
498 0 0 0 0 0 0
499 0 0 0 0 0 0
500 0 0 0 0 0 0
501 0 0 0 0 0 0
502 0 0 0 0 0 0
503 0 0 0 0 0 0
504 0 0 0 0 0 0
505 0 0 0 0 0 0
506 0 0 0 0 0 0
507 0 0 0 0 0 0
508 0 0 0 0 0 0
509 0 0 0 0 0 0
510 0 0 0 0 0 0
511 0 0 0 0 0 0
512 0 0 0 0 0 0
513 0 0 0 0 0 0
514 0 0 0 0 0 0
515 0 0 0 0 0 0
516 0 0 0 0 0 0
517 0 0 0 0 0 0
518 0 0 0 0 0 0
519 0 0 0 0 0 0
520 0 0 0 0 0 0
521 0 0 0 0 0 0
522 0 0 0 0 0 0
523 0 0 0 0 0 0
524 0 0 0 0 0 0
525 0 0 0 0 0 0
526 0 0 0 0 0 0
527 0 0 0 0 0 0
528 0 0 0 0 0 0
529 0 0 0 0 0 0
530 0 0 0 0 0 0
531 0 0 0 0 0 0
532 0 0 0 0 0 0
533 0 0 0 0 0 0
534 0 0 0 0 0 0
535 0 0 0 0 0 0
536 0 0 0 0 0 0
537 0 0 0 0 0 0
538 0 0 0 0 0 0
539 0 0 0 0 0 0
540 0 0 0 0 0 0
541 0 0 0 0 0 0
542 0 0 0 0 0 0
543 0 0 0 0 0 0
544 0 0 0 0 0 0
545 0 0 0 0 0 0
546 0 0 0 0 0 0
547 0 0 0 0 0 0
548 0 0 0 0 0 0
549 0 0 0 0 0 0
550 0 0 0 0 0 0
551 0 0 0 0 0 0
552 0 0 0 0 0 0
553 0 0 0 0 0 0
554 0 0 0 0 0 0
555 0 0 0 0 0 0
556 0 0 0 0 0 0
557 0 0 0 0 0 0
558 0 0 0 0 0 0
559 0 0 0 0 0 0
560 0 0 0 0 0 0
561 0 0 0 0 0 0
562 0 0 0 0 0 0
563 0 0 0 0 0 0
564 0 0 0 0 0 0
565 0 0 0 0 0 0
566 0 0 0 0 0 0
567 0 0 0 0 0 0
568 0 0 0 0 0 0
569 0 0 0 0 0 0
570 0 0 0 0 0 0
571 0 0 0 0 0 0
572 0 0 0 0 0 0
573 0 0 0 0 0 0
574 0 0 0 0 0 0
575 0 0 0 0 0 0
576 0 0 0 0 0 0
577 0 0 0 0 0 0
578 0 0 0 0 0 0
579 0 0 0 0 0 0
580 0 0 0 0 0 0
581 0 0 0 0 0 0
582 0 0 0 0 0 0
583 0 0 0 0 0 0
584 0 0 0 0 0 0
585 0 0 0 0 0 0
586 0 0 0 0 0 0
587 0 0 0 0 0 0
588 0 0 0 0 0 0
589 0 0 0 0 0 0
590 0 0 0 0 0 0
591 0 0 0 0 0 0
592 0 0 0 0 0 0
593 0 0 0 0 0 0
594 0 0 0 0 0 0
595 0 0 0 0 0 0
596 0 0 0 0 0 0
597 0 0 0 0 0 0
598 0 0 0 0 0 0
599 0 0 0 0 0 0
600 0 0 0 0 0 0
601 0 0 0 0 0 0
602 0 0 0 0 0 0
603 0 0 0 0 0 0
604 0 0 0 0 0 0
605 0 0 0 0 0 0
606 0 0 0 0 0 0
607 0 0 0 0 0 0
608 0 0 0 0 0 0
609 0 0 0 0 0 0
610 0 0 0 0 0 0
611 0 0 0 0 0 0
612 0 0 0 0 0 0
613 0 0 0 0 0 0
614 0 0 0 0 0 0
615 0 0 0 0 0 0
616 0 0 0 0 0 0
617 0 0 0 0 0 0
618 0 0 0 0 0 0
619 0 0 0 0 0 0
620 0 0 0 0 0 0
621 0 0 0 0 0 0
622 0 0 0 0 0 0
623 0 0 0 0 0 0
624 0 0 0 0 0 0
625 0 0 0 0 0 0
626 0 0 0 0 0 0
627 0 0 0 0 0 0
628 0 0 0 0 0 0
629 0 0 0 0 0 0
630 0 0 0 0 0 0
631 0 0 0 0 0 0
632 0 0 0 0 0 0
633 0 0 0 0 0 0
634 0 0 0 0 0 0
635 0 0 0 0 0 0
636 0 0 0 0 0 0
637 0 0 0 0 0 0
638 0 0 0 0 0 0
639 0 0 0 0 0 0
640 0 0 0 0 0 0
641 0 0 0 0 0 0
642 0 0 0 0 0 0
643 0 0 0 0 0 0
644 0 0 0 0 0 0
645 0 0 0 0 0 0
646 0 0 0 0 0 0
647 0 0 0 0 0 0
648 0 0 0 0 0 0
649 0 0 0 0 0 0
650 0 0 0 0 0 0
651 0 0 0 0 0 0
652 0 0 0 0 0 0
653 0 0 0 0 0 0
654 0 0 0 0 0 0
655 0 0 0 0 0 0
656 0 0 0 0 0 0
657 0 0 0 0 0 0
658 0 0 0 0 0 0
659 0 0 0 0 0 0
660 0 0 0 0 0 0
661 0 0 0 0 0 0
662 0 0 0 0 0 0
663 0 0 0 0 0 0
664 0 0 0 0 0 0
665 0 0 0 0 0 0
666 0 0 0 0 0 0
667 0 0 0 0 0 0
668 0 0 0 0 0 0
669 0 0 0 0 0 0
670 0 0 0 0 0 0
671 0 0 0 0 0 0
672 0 0 0 0 0 0
673 0 0 0 0 0 0
674 0 0 0 0 0 0
675 0 0 0 0 0 0
676 0 0 0 0 0 0
677 0 0 0 0 0 0
678 0 0 0 0 0 0
679 0 0 0 0 0 0
680 0 0 0 0 0 0
681 0 0 0 0 0 0
682 0 0 0 0 0 0
683 0 0 0 0 0 0
684 0 0 0 0 0 0
685 0 0 0 0 0 0
686 0 0 0 0 0 0
687 0 0 0 0 0 0
688 0 0 0 0 0 0
689 0 0 0 0 0 0
690 0 0 0 0 0 0
691 0 0 0 0 0 0
692 0 0 0 0 0 0
693 0 0 0 0 0 0
694 0 0 0 0 0 0
695 0 0 0 0 0 0
696 0 0 0 0 0 0
697 0 0 0 0 0 0
698 0 0 0 0 0 0
699 0 0 0 0 0 0
700 0 0 0 0 0 0
701 0 0 0 0 0 0
702 0 0 0 0 0 0
703 0 0 0 0 0 0
704 0 0 0 0 0 0
705 0 0 0 0 0 0
706 0 0 0 0 0 0
707 0 0 0 0 0 0
708 0 0 0 0 0 0
709 0 0 0 0 0 0
710 0 0 0 0 0 0
711 0 0 0 0 0 0
712 0 0 0 0 0 0
713 0 0 0 0 0 0
714 0 0 0 0 0 0
715 0 0 0 0 0 0
716 0 0 0 0 0 0
717 0 0 0 0 0 0
718 0 0 0 0 0 0
719 0 0 0 0 0 0
720 0 0 0 0 0 0
721 0 0 0 0 0 0
722 0 0 0 0 0 0
723 0 0 0 0 0 0
724 0 0 0 0 0 0
725 0 0 0 0 0 0
726 0 0 0 0 0 0
727 0 0 0 0 0 0
728 0 0 0 0 0 0
729 0 0 0 0 0 0
730 0 0 0 0 0 0
731 0 0 0 0 0 0
732 0 0 0 0 0 0
733 0 0 0 0 0 0
734 0 0 0 0 0 0
735 0 0 0 0 0 0
736 0 0 0 0 0 0
737 0 0 0 0 0 0
738 0 0 0 0 0 0
739 0 0 0 0 0 0
740 0 0 0 0 0 0
741 0 0 0 0 0 0
742 0 0 0 0 0 0
743 0 0 0 0 0 0
744 0 0 0 0 0 0
745 0 0 0 0 0 0
746 0 0 0 0 0 0
747 0 0 0 0 0 0
748 0 0 0 0 0 0
749 0 0 0 0 0 0
750 0 0 0 0 0 0
751 0 0 0 0 0 0
752 0 0 0 0 0 0
753 0 0 0 0 0 0
754 0 0 0 0 0 0
755 0 0 0 0 0 0
756 0 0 0 0 0 0
757 0 0 0 0 0 0
758 0 0 0 0 0 0
759 0 0 0 0 0 0
760 0 0 0 0 0 0
761 0 0 0 0 0 0
762 0 0 0 0 0 0
763 0 0 0 0 0 0
764 0 0 0 0 0 0
765 0 0 0 0 0 0
766 0 0 0 0 0 0
767 0 0 0 0 0 0
768 0 0 0 0 0 0
769 0 0 0 0 0 0
770 0 0 0 0 0 0
771 0 0 0 0 0 0
772 0 0 0 0 0 0
773 0 0 0 0 0 0
774 0 0 0 0 0 0
775 0 0 0 0 0 0
776 0 0 0 0 0 0
777 0 0 0 0 0 0
778 0 0 0 0 0 0
779 0 0 0 0 0 0
780 0 0 0 0 0 0
781 0 0 0 0 0 0
782 0 0 0 0 0 0
783 0 0 0 0 0 0
784 0 0 0 0 0 0
785 0 0 0 0 0 0
786 0 0 0 0 0 0
787 0 0 0 0 0 0
788 0 0 0 0 0 0
789 0 0 0 0 0 0
790 0 0 0 0 0 0
791 0 0 0 0 0 0
792 0 0 0 0 0 0
793 0 0 0 0 0 0
794 0 0 0 0 0 0
795 0 0 0 0 0 0
796 0 0 0 0 0 0
797 0 0 0 0 0 0
798 0 0 0 0 0 0
799 0 0 0 0 0 0
800 0 0 0 0 0 0
801 0 0 0 0 0 0
802 0 0 0 0 0 0
803 0 0 0 0 0 0
804 0 0 0 0 0 0
805 0 0 0 0 0 0
806 0 0 0 0 0 0
807 0 0 0 0 0 0
808 0 0 0 0 0 0
809 0 0 0 0 0 0
810 0 0 0 0 0 0
811 0 0 0 0 0 0
812 0 0 0 0 0 0
813 0 0 0 0 0 0
814 0 0 0 0 0 0
815 0 0 0 0 0 0
816 0 0 0 0 0 0
817 0 0 0 0 0 0
818 0 0 0 0 0 0
819 0 0 0 0 0 0
820 0 0 0 0 0 0
821 0 0 0 0 0 0
822 0 0 0 0 0 0
823 0 0 0 0 0 0
824 0 0 0 0 0 0
825 0 0 0 0 0 0
826 0 0 0 0 0 0
827 0 0 0 0 0 0
828 0 0 0 0 0 0
829 0 0 0 0 0 0
830 0 0 0 0 0 0
831 0 0 0 0 0 0
832 0 0 0 0 0 0
833 0 0 0 0 0 0
834 0 0 0 0 0 0
835 0 0 0 0 0 0
836 0 0 0 0 0 0
837 0 0 0 0 0 0
838 0 0 0 0 0 0
839 0 0 0 0 0 0
840 0 0 0 0 0 0
841 0 0 0 0 0 0
842 0 0 0 0 0 0
843 0 0 0 0 0 0
844 0 0 0 0 0 0
845 0 0 0 0 0 0
846 0 0 0 0 0 0
847 0 0 0 0 0 0
848 0 0 0 0 0 0
849 0 0 0 0 0 0
850 0 0 0 0 0 0
851 0 0 0 0 0 0
852 0 0 0 0 0 0
853 0 0 0 0 0 0
854 0 0 0 0 0 0
855 0 0 0 0 0 0
856 0 0 0 0 0 0
857 0 0 0 0 0 0
858 0 0 0 0 0 0
859 0 0 0 0 0 0
860 0 0 0 0 0 0
861 0 0 0 0 0 0
862 0 0 0 0 0 0
863 0 0 0 0 0 0
864 0 0 0 0 0 0
865 0 0 0 0 0 0
866 0 0 0 0 0 0
867 0 0 0 0 0 0
868 0 0 0 0 0 0
869 0 0 0 0 0 0
870 0 0 0 0 0 0
871 0 0 0 0 0 0
872 0 0 0 0 0 0
873 0 0 0 0 0 0
874 0 0 0 0 0 0
875 0 0 0 0 0 0
876 0 0 0 0 0 0
877 0 0 0 0 0 0
878 0 0 0 0 0 0
879 0 0 0 0 0 0
880 0 0 0 0 0 0
881 0 0 0 0 0 0
882 0 0 0 0 0 0
883 0 0 0 0 0 0
884 0 0 0 0 0 0
885 0 0 0 0 0 0
886 0 0 0 0 0 0
887 0 0 0 0 0 0
888 0 0 0 0 0 0
889 0 0 0 0 0 0
890 0 0 0 0 0 0
891 0 0 0 0 0 0
892 0 0 0 0 0 0
893 0 0 0 0 0 0
894 0 0 0 0 0 0
895 0 0 0 0 0 0
896 0 0 0 0 0 0
897 0 0 0 0 0 0
898 0 0 0 0 0 0
899 0 0 0 0 0 0
900 0 0 0 0 0 0
901 0 0 0 0 0 0
902 0 0 0 0 0 0
903 0 0 0 0 0 0
904 0 0 0 0 0 0
905 0 0 0 0 0 0
906 0 0 0 0 0 0
907 0 0 0 0 0 0
908 0 0 0 0 0 0
909 0 0 0 0 0 0
910 0 0 0 0 0 0
911 0 0 0 0 0 0
912 0 0 0 0 0 0
913 0 0 0 0 0 0
914 0 0 0 0 0 0
915 0 0 0 0 0 0
916 0 0 0 0 0 0
917 0 0 0 0 0 0
918 0 0 0 0 0 0
919 0 0 0 0 0 0
920 0 0 0 0 0 0
921 0 0 0 0 0 0
922 0 0 0 0 0 0
923 0 0 0 0 0 0
924 0 0 0 0 0 0
925 0 0 0 0 0 0
926 0 0 0 0 0 0
927 0 0 0 0 0 0
928 0 0 0 0 0 0
929 0 0 0 0 0 0
930 0 0 0 0 0 0
931 0 0 0 0 0 0
932 0 0 0 0 0 0
933 0 0 0 0 0 0
934 0 0 0 0 0 0
935 0 0 0 0 0 0
936 0 0 0 0 0 0
937 0 0 0 0 0 0
938 0 0 0 0 0 0
939 0 0 0 0 0 0
940 0 0 0 0 0 0
941 0 0 0 0 0 0
942 0 0 0 0 0 0
943 0 0 0 0 0 0
944 0 0 0 0 0 0
945 0 0 0 0 0 0
946 0 0 0 0 0 0
947 0 0 0 0 0 0
948 0 0 0 0 0 0
949 0 0 0 0 0 0
950 0 0 0 0 0 0
951 0 0 0 0 0 0
952 0 0 0 0 0 0
953 0 0 0 0 0 0
954 0 0 0 0 0 0
955 0 0 0 0 0 0
956 0 0 0 0 0 0
957 0 0 0 0 0 0
958 0 0 0 0 0 0
959 0 0 0 0 0 0
960 0 0 0 0 0 0
961 0 0 0 0 0 0
962 0 0 0 0 0 0
963 0 0 0 0 0 0
964 0 0 0 0 0 0
965 0 0 0 0 0 0
966 0 0 0 0 0 0
967 0 0 0 0 0 0
968 0 0 0 0 0 0
969 0 0 0 0 0 0
970 0 0 0 0 0 0
971 0 0 0 0 0 0
972 0 0 0 0 0 0
973 0 0 0 0 0 0
974 0 0 0 0 0 0
975 0 0 0 0 0 0
976 0 0 0 0 0 0
977 0 0 0 0 0 0
978 0 0 0 0 0 0
979 0 0 0 0 0 0
980 0 0 0 0 0 0
981 0 0 0 0 0 0
982 0 0 0 0 0 0
983 0 0 0 0 0 0
984 0 0 0 0 0 0
985 0 0 0 0 0 0
986 0 0 0 0 0 0
987 0 0 0 0 0 0
988 0 0 0 0 0 0
989 0 0 0 0 0 0
990 0 0 0 0 0 0
991 0 0 0 0 0 0
992 0 0 0 0 0 0
993 0 0 0 0 0 0
994 0 0 0 0 0 0
995 0 0 0 0 0 0
996 0 0 0 0 0 0
997 0 0 0 0 0 0
998 0 0 0 0 0 0
999 0 0 0 0 0 0
1000 0 0 0 0 0 0
