Overdamped sphere storage; density placeholder never enters equations

128 atoms
1 atom types

-5.0000000000000002e-05 5.0000000000000002e-05 xlo xhi
-3.0000000000000001e-05 3.0000000000000001e-05 ylo yhi
-1.0000000000000001e-05 5.0000000000000002e-05 zlo zhi

Atoms # sphere

1 1 1.3067793880837359e-06 1 -2.2500000000000001e-05 -1.0500000000000001e-05 7.1872866344605475e-07
2 1 1.3067793880837359e-06 1 -1.95e-05 -1.0500000000000001e-05 1.5027962962962962e-05
3 1 1.3067793880837359e-06 1 -1.6500000000000001e-05 -1.0500000000000001e-05 7.1872866344605475e-07
4 1 1.3067793880837359e-06 1 -1.3499999999999999e-05 -1.0500000000000001e-05 1.5027962962962962e-05
5 1 1.3067793880837359e-06 1 -1.0500000000000001e-05 -1.0500000000000001e-05 7.1872866344605475e-07
6 1 1.3067793880837359e-06 1 -7.5000000000000002e-06 -1.0500000000000001e-05 1.5027962962962962e-05
7 1 1.3067793880837359e-06 1 -4.5000000000000001e-06 -1.0500000000000001e-05 7.1872866344605475e-07
8 1 1.3067793880837359e-06 1 -1.5e-06 -1.0500000000000001e-05 1.5027962962962962e-05
9 1 1.3067793880837359e-06 1 1.5e-06 -1.0500000000000001e-05 7.1872866344605475e-07
10 1 1.3067793880837359e-06 1 4.5000000000000001e-06 -1.0500000000000001e-05 1.5027962962962962e-05
11 1 1.3067793880837359e-06 1 7.5000000000000002e-06 -1.0500000000000001e-05 7.1872866344605475e-07
12 1 1.3067793880837359e-06 1 1.0500000000000001e-05 -1.0500000000000001e-05 1.5027962962962962e-05
13 1 1.3067793880837359e-06 1 1.3499999999999999e-05 -1.0500000000000001e-05 7.1872866344605475e-07
14 1 1.3067793880837359e-06 1 1.6500000000000001e-05 -1.0500000000000001e-05 1.5027962962962962e-05
15 1 1.3067793880837359e-06 1 1.95e-05 -1.0500000000000001e-05 7.1872866344605475e-07
16 1 1.3067793880837359e-06 1 2.2500000000000001e-05 -1.0500000000000001e-05 1.5027962962962962e-05
17 1 1.3067793880837359e-06 1 -2.2500000000000001e-05 -7.5000000000000002e-06 7.1872866344605475e-07
18 1 1.3067793880837359e-06 1 -1.95e-05 -7.5000000000000002e-06 1.5027962962962962e-05
19 1 1.3067793880837359e-06 1 -1.6500000000000001e-05 -7.5000000000000002e-06 7.1872866344605475e-07
20 1 1.3067793880837359e-06 1 -1.3499999999999999e-05 -7.5000000000000002e-06 1.5027962962962962e-05
21 1 1.3067793880837359e-06 1 -1.0500000000000001e-05 -7.5000000000000002e-06 7.1872866344605475e-07
22 1 1.3067793880837359e-06 1 -7.5000000000000002e-06 -7.5000000000000002e-06 1.5027962962962962e-05
23 1 1.3067793880837359e-06 1 -4.5000000000000001e-06 -7.5000000000000002e-06 7.1872866344605475e-07
24 1 1.3067793880837359e-06 1 -1.5e-06 -7.5000000000000002e-06 1.5027962962962962e-05
25 1 1.3067793880837359e-06 1 1.5e-06 -7.5000000000000002e-06 7.1872866344605475e-07
26 1 1.3067793880837359e-06 1 4.5000000000000001e-06 -7.5000000000000002e-06 1.5027962962962962e-05
27 1 1.3067793880837359e-06 1 7.5000000000000002e-06 -7.5000000000000002e-06 7.1872866344605475e-07
28 1 1.3067793880837359e-06 1 1.0500000000000001e-05 -7.5000000000000002e-06 1.5027962962962962e-05
29 1 1.3067793880837359e-06 1 1.3499999999999999e-05 -7.5000000000000002e-06 7.1872866344605475e-07
30 1 1.3067793880837359e-06 1 1.6500000000000001e-05 -7.5000000000000002e-06 1.5027962962962962e-05
31 1 1.3067793880837359e-06 1 1.95e-05 -7.5000000000000002e-06 7.1872866344605475e-07
32 1 1.3067793880837359e-06 1 2.2500000000000001e-05 -7.5000000000000002e-06 1.5027962962962962e-05
33 1 1.3067793880837359e-06 1 -2.2500000000000001e-05 -4.5000000000000001e-06 7.1872866344605475e-07
34 1 1.3067793880837359e-06 1 -1.95e-05 -4.5000000000000001e-06 1.5027962962962962e-05
35 1 1.3067793880837359e-06 1 -1.6500000000000001e-05 -4.5000000000000001e-06 7.1872866344605475e-07
36 1 1.3067793880837359e-06 1 -1.3499999999999999e-05 -4.5000000000000001e-06 1.5027962962962962e-05
37 1 1.3067793880837359e-06 1 -1.0500000000000001e-05 -4.5000000000000001e-06 7.1872866344605475e-07
38 1 1.3067793880837359e-06 1 -7.5000000000000002e-06 -4.5000000000000001e-06 1.5027962962962962e-05
39 1 1.3067793880837359e-06 1 -4.5000000000000001e-06 -4.5000000000000001e-06 7.1872866344605475e-07
40 1 1.3067793880837359e-06 1 -1.5e-06 -4.5000000000000001e-06 1.5027962962962962e-05
41 1 1.3067793880837359e-06 1 1.5e-06 -4.5000000000000001e-06 7.1872866344605475e-07
42 1 1.3067793880837359e-06 1 4.5000000000000001e-06 -4.5000000000000001e-06 1.5027962962962962e-05
43 1 1.3067793880837359e-06 1 7.5000000000000002e-06 -4.5000000000000001e-06 7.1872866344605475e-07
44 1 1.3067793880837359e-06 1 1.0500000000000001e-05 -4.5000000000000001e-06 1.5027962962962962e-05
45 1 1.3067793880837359e-06 1 1.3499999999999999e-05 -4.5000000000000001e-06 7.1872866344605475e-07
46 1 1.3067793880837359e-06 1 1.6500000000000001e-05 -4.5000000000000001e-06 1.5027962962962962e-05
47 1 1.3067793880837359e-06 1 1.95e-05 -4.5000000000000001e-06 7.1872866344605475e-07
48 1 1.3067793880837359e-06 1 2.2500000000000001e-05 -4.5000000000000001e-06 1.5027962962962962e-05
49 1 1.3067793880837359e-06 1 -2.2500000000000001e-05 -1.5e-06 7.1872866344605475e-07
50 1 1.3067793880837359e-06 1 -1.95e-05 -1.5e-06 1.5027962962962962e-05
51 1 1.3067793880837359e-06 1 -1.6500000000000001e-05 -1.5e-06 7.1872866344605475e-07
52 1 1.3067793880837359e-06 1 -1.3499999999999999e-05 -1.5e-06 1.5027962962962962e-05
53 1 1.3067793880837359e-06 1 -1.0500000000000001e-05 -1.5e-06 7.1872866344605475e-07
54 1 1.3067793880837359e-06 1 -7.5000000000000002e-06 -1.5e-06 1.5027962962962962e-05
55 1 1.3067793880837359e-06 1 -4.5000000000000001e-06 -1.5e-06 7.1872866344605475e-07
56 1 1.3067793880837359e-06 1 -1.5e-06 -1.5e-06 1.5027962962962962e-05
57 1 1.3067793880837359e-06 1 1.5e-06 -1.5e-06 7.1872866344605475e-07
58 1 1.3067793880837359e-06 1 4.5000000000000001e-06 -1.5e-06 1.5027962962962962e-05
59 1 1.3067793880837359e-06 1 7.5000000000000002e-06 -1.5e-06 7.1872866344605475e-07
60 1 1.3067793880837359e-06 1 1.0500000000000001e-05 -1.5e-06 1.5027962962962962e-05
61 1 1.3067793880837359e-06 1 1.3499999999999999e-05 -1.5e-06 7.1872866344605475e-07
62 1 1.3067793880837359e-06 1 1.6500000000000001e-05 -1.5e-06 1.5027962962962962e-05
63 1 1.3067793880837359e-06 1 1.95e-05 -1.5e-06 7.1872866344605475e-07
64 1 1.3067793880837359e-06 1 2.2500000000000001e-05 -1.5e-06 1.5027962962962962e-05
65 1 1.3067793880837359e-06 1 -2.2500000000000001e-05 1.5e-06 7.1872866344605475e-07
66 1 1.3067793880837359e-06 1 -1.95e-05 1.5e-06 1.5027962962962962e-05
67 1 1.3067793880837359e-06 1 -1.6500000000000001e-05 1.5e-06 7.1872866344605475e-07
68 1 1.3067793880837359e-06 1 -1.3499999999999999e-05 1.5e-06 1.5027962962962962e-05
69 1 1.3067793880837359e-06 1 -1.0500000000000001e-05 1.5e-06 7.1872866344605475e-07
70 1 1.3067793880837359e-06 1 -7.5000000000000002e-06 1.5e-06 1.5027962962962962e-05
71 1 1.3067793880837359e-06 1 -4.5000000000000001e-06 1.5e-06 7.1872866344605475e-07
72 1 1.3067793880837359e-06 1 -1.5e-06 1.5e-06 1.5027962962962962e-05
73 1 1.3067793880837359e-06 1 1.5e-06 1.5e-06 7.1872866344605475e-07
74 1 1.3067793880837359e-06 1 4.5000000000000001e-06 1.5e-06 1.5027962962962962e-05
75 1 1.3067793880837359e-06 1 7.5000000000000002e-06 1.5e-06 7.1872866344605475e-07
76 1 1.3067793880837359e-06 1 1.0500000000000001e-05 1.5e-06 1.5027962962962962e-05
77 1 1.3067793880837359e-06 1 1.3499999999999999e-05 1.5e-06 7.1872866344605475e-07
78 1 1.3067793880837359e-06 1 1.6500000000000001e-05 1.5e-06 1.5027962962962962e-05
79 1 1.3067793880837359e-06 1 1.95e-05 1.5e-06 7.1872866344605475e-07
80 1 1.3067793880837359e-06 1 2.2500000000000001e-05 1.5e-06 1.5027962962962962e-05
81 1 1.3067793880837359e-06 1 -2.2500000000000001e-05 4.5000000000000001e-06 7.1872866344605475e-07
82 1 1.3067793880837359e-06 1 -1.95e-05 4.5000000000000001e-06 1.5027962962962962e-05
83 1 1.3067793880837359e-06 1 -1.6500000000000001e-05 4.5000000000000001e-06 7.1872866344605475e-07
84 1 1.3067793880837359e-06 1 -1.3499999999999999e-05 4.5000000000000001e-06 1.5027962962962962e-05
85 1 1.3067793880837359e-06 1 -1.0500000000000001e-05 4.5000000000000001e-06 7.1872866344605475e-07
86 1 1.3067793880837359e-06 1 -7.5000000000000002e-06 4.5000000000000001e-06 1.5027962962962962e-05
87 1 1.3067793880837359e-06 1 -4.5000000000000001e-06 4.5000000000000001e-06 7.1872866344605475e-07
88 1 1.3067793880837359e-06 1 -1.5e-06 4.5000000000000001e-06 1.5027962962962962e-05
89 1 1.3067793880837359e-06 1 1.5e-06 4.5000000000000001e-06 7.1872866344605475e-07
90 1 1.3067793880837359e-06 1 4.5000000000000001e-06 4.5000000000000001e-06 1.5027962962962962e-05
91 1 1.3067793880837359e-06 1 7.5000000000000002e-06 4.5000000000000001e-06 7.1872866344605475e-07
92 1 1.3067793880837359e-06 1 1.0500000000000001e-05 4.5000000000000001e-06 1.5027962962962962e-05
93 1 1.3067793880837359e-06 1 1.3499999999999999e-05 4.5000000000000001e-06 7.1872866344605475e-07
94 1 1.3067793880837359e-06 1 1.6500000000000001e-05 4.5000000000000001e-06 1.5027962962962962e-05
95 1 1.3067793880837359e-06 1 1.95e-05 4.5000000000000001e-06 7.1872866344605475e-07
96 1 1.3067793880837359e-06 1 2.2500000000000001e-05 4.5000000000000001e-06 1.5027962962962962e-05
97 1 1.3067793880837359e-06 1 -2.2500000000000001e-05 7.5000000000000002e-06 7.1872866344605475e-07
98 1 1.3067793880837359e-06 1 -1.95e-05 7.5000000000000002e-06 1.5027962962962962e-05
99 1 1.3067793880837359e-06 1 -1.6500000000000001e-05 7.5000000000000002e-06 7.1872866344605475e-07
100 1 1.3067793880837359e-06 1 -1.3499999999999999e-05 7.5000000000000002e-06 1.5027962962962962e-05
101 1 1.3067793880837359e-06 1 -1.0500000000000001e-05 7.5000000000000002e-06 7.1872866344605475e-07
102 1 1.3067793880837359e-06 1 -7.5000000000000002e-06 7.5000000000000002e-06 1.5027962962962962e-05
103 1 1.3067793880837359e-06 1 -4.5000000000000001e-06 7.5000000000000002e-06 7.1872866344605475e-07
104 1 1.3067793880837359e-06 1 -1.5e-06 7.5000000000000002e-06 1.5027962962962962e-05
105 1 1.3067793880837359e-06 1 1.5e-06 7.5000000000000002e-06 7.1872866344605475e-07
106 1 1.3067793880837359e-06 1 4.5000000000000001e-06 7.5000000000000002e-06 1.5027962962962962e-05
107 1 1.3067793880837359e-06 1 7.5000000000000002e-06 7.5000000000000002e-06 7.1872866344605475e-07
108 1 1.3067793880837359e-06 1 1.0500000000000001e-05 7.5000000000000002e-06 1.5027962962962962e-05
109 1 1.3067793880837359e-06 1 1.3499999999999999e-05 7.5000000000000002e-06 7.1872866344605475e-07
110 1 1.3067793880837359e-06 1 1.6500000000000001e-05 7.5000000000000002e-06 1.5027962962962962e-05
111 1 1.3067793880837359e-06 1 1.95e-05 7.5000000000000002e-06 7.1872866344605475e-07
112 1 1.3067793880837359e-06 1 2.2500000000000001e-05 7.5000000000000002e-06 1.5027962962962962e-05
113 1 1.3067793880837359e-06 1 -2.2500000000000001e-05 1.0500000000000001e-05 7.1872866344605475e-07
114 1 1.3067793880837359e-06 1 -1.95e-05 1.0500000000000001e-05 1.5027962962962962e-05
115 1 1.3067793880837359e-06 1 -1.6500000000000001e-05 1.0500000000000001e-05 7.1872866344605475e-07
116 1 1.3067793880837359e-06 1 -1.3499999999999999e-05 1.0500000000000001e-05 1.5027962962962962e-05
117 1 1.3067793880837359e-06 1 -1.0500000000000001e-05 1.0500000000000001e-05 7.1872866344605475e-07
118 1 1.3067793880837359e-06 1 -7.5000000000000002e-06 1.0500000000000001e-05 1.5027962962962962e-05
119 1 1.3067793880837359e-06 1 -4.5000000000000001e-06 1.0500000000000001e-05 7.1872866344605475e-07
120 1 1.3067793880837359e-06 1 -1.5e-06 1.0500000000000001e-05 1.5027962962962962e-05
121 1 1.3067793880837359e-06 1 1.5e-06 1.0500000000000001e-05 7.1872866344605475e-07
122 1 1.3067793880837359e-06 1 4.5000000000000001e-06 1.0500000000000001e-05 1.5027962962962962e-05
123 1 1.3067793880837359e-06 1 7.5000000000000002e-06 1.0500000000000001e-05 7.1872866344605475e-07
124 1 1.3067793880837359e-06 1 1.0500000000000001e-05 1.0500000000000001e-05 1.5027962962962962e-05
125 1 1.3067793880837359e-06 1 1.3499999999999999e-05 1.0500000000000001e-05 7.1872866344605475e-07
126 1 1.3067793880837359e-06 1 1.6500000000000001e-05 1.0500000000000001e-05 1.5027962962962962e-05
127 1 1.3067793880837359e-06 1 1.95e-05 1.0500000000000001e-05 7.1872866344605475e-07
128 1 1.3067793880837359e-06 1 2.2500000000000001e-05 1.0500000000000001e-05 1.5027962962962962e-05

Velocities

1 0 0 0 0 0 0
2 0 0 0 0 0 0
3 0 0 0 0 0 0
4 0 0 0 0 0 0
5 0 0 0 0 0 0
6 0 0 0 0 0 0
7 0 0 0 0 0 0
8 0 0 0 0 0 0
9 0 0 0 0 0 0
10 0 0 0 0 0 0
11 0 0 0 0 0 0
12 0 0 0 0 0 0
13 0 0 0 0 0 0
14 0 0 0 0 0 0
15 0 0 0 0 0 0
16 0 0 0 0 0 0
17 0 0 0 0 0 0
18 0 0 0 0 0 0
19 0 0 0 0 0 0
20 0 0 0 0 0 0
21 0 0 0 0 0 0
22 0 0 0 0 0 0
23 0 0 0 0 0 0
24 0 0 0 0 0 0
25 0 0 0 0 0 0
26 0 0 0 0 0 0
27 0 0 0 0 0 0
28 0 0 0 0 0 0
29 0 0 0 0 0 0
30 0 0 0 0 0 0
31 0 0 0 0 0 0
32 0 0 0 0 0 0
33 0 0 0 0 0 0
34 0 0 0 0 0 0
35 0 0 0 0 0 0
36 0 0 0 0 0 0
37 0 0 0 0 0 0
38 0 0 0 0 0 0
39 0 0 0 0 0 0
40 0 0 0 0 0 0
41 0 0 0 0 0 0
42 0 0 0 0 0 0
43 0 0 0 0 0 0
44 0 0 0 0 0 0
45 0 0 0 0 0 0
46 0 0 0 0 0 0
47 0 0 0 0 0 0
48 0 0 0 0 0 0
49 0 0 0 0 0 0
50 0 0 0 0 0 0
51 0 0 0 0 0 0
52 0 0 0 0 0 0
53 0 0 0 0 0 0
54 0 0 0 0 0 0
55 0 0 0 0 0 0
56 0 0 0 0 0 0
57 0 0 0 0 0 0
58 0 0 0 0 0 0
59 0 0 0 0 0 0
60 0 0 0 0 0 0
61 0 0 0 0 0 0
62 0 0 0 0 0 0
63 0 0 0 0 0 0
64 0 0 0 0 0 0
65 0 0 0 0 0 0
66 0 0 0 0 0 0
67 0 0 0 0 0 0
68 0 0 0 0 0 0
69 0 0 0 0 0 0
70 0 0 0 0 0 0
71 0 0 0 0 0 0
72 0 0 0 0 0 0
73 0 0 0 0 0 0
74 0 0 0 0 0 0
75 0 0 0 0 0 0
76 0 0 0 0 0 0
77 0 0 0 0 0 0
78 0 0 0 0 0 0
79 0 0 0 0 0 0
80 0 0 0 0 0 0
81 0 0 0 0 0 0
82 0 0 0 0 0 0
83 0 0 0 0 0 0
84 0 0 0 0 0 0
85 0 0 0 0 0 0
86 0 0 0 0 0 0
87 0 0 0 0 0 0
88 0 0 0 0 0 0
89 0 0 0 0 0 0
90 0 0 0 0 0 0
91 0 0 0 0 0 0
92 0 0 0 0 0 0
93 0 0 0 0 0 0
94 0 0 0 0 0 0
95 0 0 0 0 0 0
96 0 0 0 0 0 0
97 0 0 0 0 0 0
98 0 0 0 0 0 0
99 0 0 0 0 0 0
100 0 0 0 0 0 0
101 0 0 0 0 0 0
102 0 0 0 0 0 0
103 0 0 0 0 0 0
104 0 0 0 0 0 0
105 0 0 0 0 0 0
106 0 0 0 0 0 0
107 0 0 0 0 0 0
108 0 0 0 0 0 0
109 0 0 0 0 0 0
110 0 0 0 0 0 0
111 0 0 0 0 0 0
112 0 0 0 0 0 0
113 0 0 0 0 0 0
114 0 0 0 0 0 0
115 0 0 0 0 0 0
116 0 0 0 0 0 0
117 0 0 0 0 0 0
118 0 0 0 0 0 0
119 0 0 0 0 0 0
120 0 0 0 0 0 0
121 0 0 0 0 0 0
122 0 0 0 0 0 0
123 0 0 0 0 0 0
124 0 0 0 0 0 0
125 0 0 0 0 0 0
126 0 0 0 0 0 0
127 0 0 0 0 0 0
128 0 0 0 0 0 0
