LAMMPS (2 Sep 2026)
Reading data file ...
  orthogonal box = (-6.4e-05 -6.4e-05 -6.4e-05) to (6.4e-05 6.4e-05 6.4e-05)
  1 by 1 by 1 MPI processor grid
  reading atoms ...
  1 atoms
  reading velocities ...
  1 velocities
  read_data CPU = 0.001 seconds
Generated 0 of 0 mixed pair_coeff terms from geometric mixing rule
Neighbor list info ...
  update: every = 1 steps, delay = 0 steps, check = no
  max neighbors/atom: 2000, page size: 100000
  master list distance cutoff = 7e-06
  ghost atom cutoff = 7e-06
  binsize = 3.5e-06, bins = 37 37 37
  1 neighbor lists, perpetual/occasional/extra = 1 0 0
  (1) pair zero, perpetual
      attributes: half, newton off
      pair build: half/bin/atomonly/newtoff
      stencil: full/bin/3d
      bin: standard
Setting up Verlet run ...
  Unit style    : si
  Current step  : 0
  Time step     : 3.240291504988368e-08
Per MPI rank memory allocation (min/avg/max) = 4.089 | 4.089 | 4.089 Mbytes
   Step        Atoms         Time     
         0           1  0
Loop time of 8.61e-07 on 1 procs for 0 steps with 1 atoms

0.0% CPU use with 1 MPI tasks x no OpenMP threads

MPI task timing breakdown:
Section |  min time  |  avg time  |  max time  |%varavg| %total
---------------------------------------------------------------
Pair    | 0          | 0          | 0          |   0.0 |  0.00
Neigh   | 0          | 0          | 0          |   0.0 |  0.00
Comm    | 0          | 0          | 0          |   0.0 |  0.00
Output  | 0          | 0          | 0          |   0.0 |  0.00
Modify  | 0          | 0          | 0          |   0.0 |  0.00
Other   |            | 8.61e-07   |            |       |100.00

Nlocal:              1 ave           1 max           1 min
Histogram: 1 0 0 0 0 0 0 0 0 0
Nghost:              0 ave           0 max           0 min
Histogram: 1 0 0 0 0 0 0 0 0 0
Neighs:              0 ave           0 max           0 min
Histogram: 1 0 0 0 0 0 0 0 0 0

Total # of neighbors = 0
Ave neighs/atom = 0
Neighbor list builds = 0
Dangerous builds not checked
Generated 0 of 0 mixed pair_coeff terms from geometric mixing rule
Setting up Verlet run ...
  Unit style    : si
  Current step  : 0
  Time step     : 3.240291504988368e-08
Per MPI rank memory allocation (min/avg/max) = 4.089 | 4.089 | 4.089 Mbytes
   Step        Atoms         Time     
         0           1  0
       400           1  1.2961166019953473e-05
       800           1  2.5922332039906946e-05
      1200           1  3.8883498059860417e-05
      1600           1  5.1844664079813892e-05
      2000           1  6.4805830099767367e-05
      2400           1  7.7766996119720835e-05
      2800           1  9.0728162139674302e-05
      3200           1  0.00010368932815962778
      3600           1  0.00011665049417958125
      4000           1  0.00012961166019953473
Loop time of 0.0843893 on 1 procs for 4000 steps with 1 atoms

100.0% CPU use with 1 MPI tasks x no OpenMP threads

MPI task timing breakdown:
Section |  min time  |  avg time  |  max time  |%varavg| %total
---------------------------------------------------------------
Pair    | 0.00010547 | 0.00010547 | 0.00010547 |   0.0 |  0.12
Neigh   | 0.076157   | 0.076157   | 0.076157   |   0.0 | 90.25
Comm    | 0.0007195  | 0.0007195  | 0.0007195  |   0.0 |  0.85
Output  | 3.2912e-05 | 3.2912e-05 | 3.2912e-05 |   0.0 |  0.04
Modify  | 0.0069886  | 0.0069886  | 0.0069886  |   0.0 |  8.28
Other   |            | 0.0003854  |            |       |  0.46

Nlocal:              1 ave           1 max           1 min
Histogram: 1 0 0 0 0 0 0 0 0 0
Nghost:              0 ave           0 max           0 min
Histogram: 1 0 0 0 0 0 0 0 0 0
Neighs:              0 ave           0 max           0 min
Histogram: 1 0 0 0 0 0 0 0 0 0

Total # of neighbors = 0
Ave neighs/atom = 0
Neighbor list builds = 4000
Dangerous builds not checked
PASSIVE_CASE_COMPLETED
Total wall time: 0:00:00
