LAMMPS (22 Jul 2025 - Update 6)
Reading data file ...
  orthogonal box = (-4e-05 -4e-05 -4e-05) to (4e-05 4e-05 4e-05)
  4 by 1 by 1 MPI processor grid
  reading atoms ...
  1000 atoms
  reading velocities ...
  1000 velocities
  read_data CPU = 0.006 seconds
Generated 0 of 0 mixed pair_coeff terms from geometric mixing rule
Neighbor list info ...
  update: every = 1 steps, delay = 0 steps, check = no
  max neighbors/atom: 2000, page size: 100000
  master list distance cutoff = 7e-06
  ghost atom cutoff = 7e-06
  binsize = 3.5e-06, bins = 23 23 23
  1 neighbor lists, perpetual/occasional/extra = 1 0 0
  (1) pair zero, perpetual
      attributes: half, newton off
      pair build: half/bin/atomonly/newtoff
      stencil: full/bin/3d
      bin: standard
Setting up Verlet run ...
  Unit style    : si
  Current step  : 0
  Time step     : 6.249999999999999e-11
Per MPI rank memory allocation (min/avg/max) = 3.863 | 3.863 | 3.863 Mbytes
   Step        Atoms         Time          KinEng    
         0        1000  0 0
Loop time of 2.84725e-06 on 4 procs for 0 steps with 1000 atoms

70.2% CPU use with 4 MPI tasks x no OpenMP threads

MPI task timing breakdown:
Section |  min time  |  avg time  |  max time  |%varavg| %total
---------------------------------------------------------------
Pair    | 0          | 0          | 0          |   0.0 |  0.00
Neigh   | 0          | 0          | 0          |   0.0 |  0.00
Comm    | 0          | 0          | 0          |   0.0 |  0.00
Output  | 0          | 0          | 0          |   0.0 |  0.00
Modify  | 0          | 0          | 0          |   0.0 |  0.00
Other   |            | 2.847e-06  |            |       |100.00

Nlocal:            250 ave         300 max         200 min
Histogram: 2 0 0 0 0 0 0 0 0 2
Nghost:            326 ave         376 max         276 min
Histogram: 2 0 0 0 0 0 0 0 0 2
Neighs:              0 ave           0 max           0 min
Histogram: 4 0 0 0 0 0 0 0 0 0

Total # of neighbors = 0
Ave neighs/atom = 0
Neighbor list builds = 0
Dangerous builds not checked
Generated 0 of 0 mixed pair_coeff terms from geometric mixing rule
Setting up Verlet run ...
  Unit style    : si
  Current step  : 0
  Time step     : 6.249999999999999e-11
Per MPI rank memory allocation (min/avg/max) = 3.863 | 3.863 | 3.863 Mbytes
   Step        Atoms         Time          KinEng    
         0        1000  0 0
       100        1000  6.2499999999999989e-09 1.921557926514219e-21
       200        1000  1.2499999999999998e-08 7.3847918323083044e-21
       300        1000  1.8749999999999996e-08 1.5977891113332776e-20
       400        1000  2.4999999999999996e-08 2.733708057326968e-20
       500        1000  3.1249999999999999e-08 4.1140305848856084e-20
       600        1000  3.7499999999999992e-08 5.7101855488047093e-20
       700        1000  4.3749999999999991e-08 7.4967766215308809e-20
       800        1000  4.9999999999999991e-08 9.4511885054043022e-20
       900        1000  5.6249999999999991e-08 1.155324840323382e-19
      1000        1000  6.2499999999999997e-08 1.3784934116729102e-19
Loop time of 0.247641 on 4 procs for 1000 steps with 1000 atoms

98.9% CPU use with 4 MPI tasks x no OpenMP threads

MPI task timing breakdown:
Section |  min time  |  avg time  |  max time  |%varavg| %total
---------------------------------------------------------------
Pair    | 3.0463e-05 | 3.2541e-05 | 3.6812e-05 |   0.0 |  0.01
Neigh   | 0.026137   | 0.033053   | 0.039793   |   3.4 | 13.35
Comm    | 0.014045   | 0.014583   | 0.015438   |   0.4 |  5.89
Output  | 5.8991e-05 | 7.1155e-05 | 9.2854e-05 |   0.0 |  0.03
Modify  | 0.19235    | 0.19898    | 0.20612    |   1.3 | 80.35
Other   |            | 0.0009164  |            |       |  0.37

Nlocal:            250 ave         300 max         200 min
Histogram: 2 0 0 0 0 0 0 0 0 2
Nghost:            326 ave         376 max         276 min
Histogram: 2 0 0 0 0 0 0 0 0 2
Neighs:              0 ave           0 max           0 min
Histogram: 4 0 0 0 0 0 0 0 0 0

Total # of neighbors = 0
Ave neighs/atom = 0
Neighbor list builds = 1000
Dangerous builds not checked
COUPLING_CASE_COMPLETED
Total wall time: 0:00:00
