ITEM: TIMESTEP
1000
ITEM: NUMBER OF ATOMS
1000
ITEM: BOX BOUNDS pp pp pp
-4.0000000000000003e-05 4.0000000000000003e-05
-4.0000000000000003e-05 4.0000000000000003e-05
-4.0000000000000003e-05 4.0000000000000003e-05
ITEM: ATOMS id diameter mass xu yu zu vx vy vz fx fy fz
1 2.5316539630705636e-06 8.495944271409396e-15 -3.5999994821685504e-05 -3.600000103566293e-05 -3.5999998446505736e-05 0.00016099814375288916 -3.2199628750577774e-05 4.8299443125866539e-05 2.0020573328663056e-11 -4.004114665732612e-12 6.00617199859892e-12
2 1.5658603755151572e-06 2.0102854311696794e-15 -3.599998762210292e-05 -3.6000002475579313e-05 -2.7999996286630893e-05 0.000368040257210283 -7.3608051442056402e-05 0.00011041207716308468 9.3285301445307025e-12 -1.865706028906143e-12 2.7985590433592127e-12
3 1.9102340532032774e-06 3.649710112132324e-15 -3.5999991282562137e-05 -3.6000001743487591e-05 -1.9999997384768603e-05 0.00026534307087698573 -5.3068614175397281e-05 7.9602921263095786e-05 1.3228458583167167e-11 -2.6456917166334312e-12 3.968537574950148e-12
4 1.6558053464592922e-06 2.3769851252082018e-15 -3.5999988762919013e-05 -3.6000002247416209e-05 -1.1999996628875705e-05 0.00033662498785363602 -6.7324997570727122e-05 0.00010098749635609053 1.0354487969995585e-11 -2.0708975939991199e-12 3.1063463909986807e-12
5 2.0575758614128358e-06 4.5610642630430688e-15 -3.5999992384176224e-05 -3.6000001523164666e-05 -3.9999977152528623e-06 0.00023338106844247479 -4.6676213688494876e-05 7.0014320532742612e-05 1.4868399786335748e-11 -2.9736799572671511e-12 4.4605199359007214e-12
6 3.9834382964137001e-06 3.3095801664251728e-14 -3.5999997835795652e-05 -3.6000000432840877e-05 4.0000006492612554e-06 6.8445791455868019e-05 -1.3689158291173626e-05 2.0533737436760343e-05 3.4974599467652339e-11 -6.9949198935304675e-12 1.0492379840295703e-11
7 3.2033595325556467e-06 1.7211379358506252e-14 -3.5999996695639587e-05 -3.6000000660872115e-05 1.20000009913081e-05 0.00010384238362729673 -2.0768476725459291e-05 3.1152715088188935e-05 2.7057335057577646e-11 -5.4114670115155311e-12 8.1172005172732967e-12
8 1.8674241170473475e-06 3.4097890523248905e-15 -3.5999990919384361e-05 -3.6000001816123147e-05 2.0000002724184734e-05 0.00027577537537821535 -5.5155075075643215e-05 8.2732612613464887e-05 1.2748451489205462e-11 -2.5496902978410905e-12 3.8245354467616327e-12
9 1.9838955588885943e-06 4.0884156116346234e-15 -3.5999991860168161e-05 -3.6000001627966385e-05 2.8000002441949593e-05 0.00024864385561415022 -4.9728771122830068e-05 7.4593156684245028e-05 1.4050696325801481e-11 -2.8101392651602952e-12 4.2152088977404442e-12
10 1.4930108569212954e-06 1.7425591139379118e-15 -3.5999986575148689e-05 -3.6000002684970269e-05 3.6000004027455406e-05 0.00039638550244524494 -7.9277100489048757e-05 0.00011891565073357351 8.4957820334851076e-12 -1.6991564066970242e-12 2.5487346100455314e-12
11 1.7365375206563586e-06 2.7418970002432622e-15 -3.5999989664068136e-05 -2.8000002067186394e-05 -3.5999996899220419e-05 0.00031142724205868378 -6.2285448411736674e-05 9.3428172617605025e-05 1.1271615172961875e-11 -2.2543230345923763e-12 3.3814845518885637e-12
12 2.2484442923034369e-06 5.9517546241916342e-15 -3.5999993533637494e-05 -2.8000001293272489e-05 -2.7999998060091262e-05 0.00019952869422949567 -3.9905738845899181e-05 5.9858608268848859e-05 1.6964745632931467e-11 -3.3929491265862932e-12 5.089423689879436e-12
13 1.7384755428131272e-06 2.7510873396752559e-15 -3.599998968441813e-05 -2.8000002063116408e-05 -1.9999996905325433e-05 0.0003108543742613024 -6.2170874852260198e-05 9.3256312278390405e-05 1.1293577945331761e-11 -2.2587155890663567e-12 3.3880733835995333e-12
14 1.3902797501725369e-06 1.4070360147617445e-15 -3.5999984877559307e-05 -2.8000003024488144e-05 -1.1999995463267828e-05 0.00044133376452096132 -8.8266752904192427e-05 0.00013240012935628807 7.3223781662185075e-12 -1.4644756332436991e-12 2.1967134498655555e-12
15 2.168807157122433e-06 5.341477896503093e-15 -3.5999993086984336e-05 -2.8000001382603185e-05 -3.9999979260953057e-06 0.00021274318600501577 -4.2548637201003171e-05 6.3822955801504756e-05 1.6093867895624715e-11 -3.2187735791249426e-12 4.8281603686874129e-12
16 1.560297974505904e-06 1.9889380509938475e-15 -3.5999987546277323e-05 -2.8000002490744511e-05 4.0000037361167794e-06 0.00037010888425188267 -7.4021776850376319e-05 0.00011103266527556477 9.2649805240288406e-12 -1.852996104805772e-12 2.7794941572086527e-12
17 2.415382232611696e-06 7.378298551707582e-15 -3.5999994342828275e-05 -2.8000001131434315e-05 1.200000169715149e-05 0.00017539544283562744 -3.5079088567125409e-05 5.261863285068809e-05 1.8773472051920526e-11 -3.7546944103841085e-12 5.6320416155761615e-12
18 3.0403121621523933e-06 1.4714758972197919e-14 -3.5999996346152953e-05 -2.8000000730769462e-05 2.000000109615408e-05 0.00011459895155813507 -2.2919790311627036e-05 3.4379685467440456e-05 2.5372062077956157e-11 -5.0744124155912311e-12 7.611618623386849e-12
19 1.8462133095744682e-06 3.2949152992535182e-15 -3.5999990731341e-05 -2.8000001853731791e-05 2.8000002780597675e-05 0.00028115629006761155 -5.6231258013522234e-05 8.4346887020283378e-05 1.2510053261144498e-11 -2.5020106522289009e-12 3.753015978343352e-12
20 2.9988033468725901e-06 1.4120256403264671e-14 -3.599999624845374e-05 -2.8000000750309208e-05 3.6000001125463886e-05 0.00011759805118735521 -2.3519610237471076e-05 3.5279415356206588e-05 2.4940935475054023e-11 -4.9881870950108043e-12 7.4822806425162057e-12
21 2.0353281725534818e-06 4.4147077044741792e-15 -3.5999992231228189e-05 -2.0000001553754363e-05 -3.5999997669368423e-05 0.00023784704534936813 -4.7569409069873689e-05 7.1354113604810368e-05 1.4621996782257954e-11 -2.9243993564515899e-12 4.3865990346773873e-12
22 3.0091326418678961e-06 1.4266670060182292e-14 -3.599999627312346e-05 -2.00000007453753e-05 -2.799999888193698e-05 0.00011684108469731888 -2.3368216939463833e-05 3.5052325409195726e-05 2.5048302317984899e-11 -5.0096604635969778e-12 7.5144906953954646e-12
23 2.7569272170038241e-06 1.0971715177032559e-14 -3.5999995594270029e-05 -2.0000000881146076e-05 -1.9999998678280961e-05 0.00013759014505099863 -2.7518029010199773e-05 4.1277043515299652e-05 2.241002189686146e-11 -4.4820043793722915e-12 6.7230065690584336e-12
24 1.7488201247201775e-06 2.8004901486108698e-15 -3.5999989792079527e-05 -2.0000002041584138e-05 -1.1999996937623839e-05 0.00030782081450907883 -6.1564162901815771e-05 9.234624435272367e-05 1.1410763089145841e-11 -2.2821526178291683e-12 3.4232289267437512e-12
25 3.6708626345171869e-06 2.590019430477729e-14 -3.5999997462057522e-05 -2.0000000507588527e-05 -3.9999992386172751e-06 8.0099699381219286e-05 -1.6019939876243877e-05 2.4029909814365786e-05 3.1827179298333049e-11 -6.3654358596666088e-12 9.5481537894999123e-12
26 2.4356738529529644e-06 7.5658203409398578e-15 -3.5999994430953644e-05 -2.0000001113809303e-05 4.0000016707139058e-06 0.00017275230753961704 -3.4550461507923382e-05 5.1825692261885117e-05 1.8991838392076755e-11 -3.7983676784153516e-12 5.6975515176230262e-12
27 1.4529773289917308e-06 1.6061094458955343e-15 -3.5999985946623585e-05 -2.0000002810675312e-05 1.2000004216012922e-05 0.00041317499494152255 -8.2634998988304767e-05 0.00012395249848245655 8.0381166952822988e-12 -1.6076233390564565e-12 2.4114350085846921e-12
28 1.8612603638641394e-06 3.3761365942817306e-15 -3.5999990865309005e-05 -2.0000001826938132e-05 2.0000002740407295e-05 0.00027732419990300758 -5.5464839980601523e-05 8.3197259970902752e-05 1.267921280168738e-11 -2.5358425603374757e-12 3.8037638405062039e-12
29 1.8538124403770304e-06 3.3357692357374559e-15 -3.5999990799348238e-05 -2.0000001840130338e-05 2.8000002760195501e-05 0.00027921187158759482 -5.5842374317518962e-05 8.3763561476278277e-05 1.2595506463814696e-11 -2.5191012927629395e-12 3.7786519391444106e-12
30 1.3067896714224622e-06 1.1684649836339345e-15 -3.5999983273137281e-05 -2.0000003345372517e-05 3.6000005018058683e-05 0.00048263056773728894 -9.6526113547457681e-05 0.00014478917032118672 6.3741262692365144e-12 -1.2748252538473039e-12 1.9122378807709543e-12
31 9.8853758056529803e-07 5.0579924301735125e-16 -3.5999974610602623e-05 -1.20000050778795e-05 -3.5999992383180723e-05 0.00068396540878714923 -0.00013679308175742975 0.00020518962263614497 2.9461102347190026e-12 -5.8922204694380115e-13 8.8383307041569854e-13
32 2.9334482034281859e-06 1.321703058116554e-14 -3.5999996086621523e-05 -1.200000078267572e-05 -2.7999998825986432e-05 0.00012255823210332835 -2.4511646420665673e-05 3.6767469630998514e-05 2.4260304375245683e-11 -4.8520608750491368e-12 7.278091312573704e-12
33 1.921253889157627e-06 3.7132389833784394e-15 -3.5999991372660869e-05 -1.2000001725467844e-05 -1.9999997411798295e-05 0.00026274688168988425 -5.2549376337976944e-05 7.8824064506965446e-05 1.3351765368227442e-11 -2.6703530736454869e-12 4.0055296104682295e-12
34 2.4806041749071127e-06 7.9922863068393982e-15 -3.5999994619060424e-05 -1.2000001076187913e-05 -1.1999998385718111e-05 0.00016710071306874684 -3.3420142613749323e-05 5.0130213920623826e-05 1.9474252196012253e-11 -3.8948504392024528e-12 5.8422756588036804e-12
35 2.8897552252547214e-06 1.2635190536757873e-14 -3.599999597261284e-05 -1.200000080547743e-05 -3.9999987917838724e-06 0.00012604688926092972 -2.520937785218595e-05 3.781406677827883e-05 2.3803979774535682e-11 -4.7607959549071356e-12 7.1411939323607063e-12
36 1.480753558496519e-06 1.6999923901208373e-15 -3.5999986386934506e-05 -1.20000027226131e-05 4.000004083919635e-06 0.0004014312025769686 -8.0286240515393717e-05 0.00012042936077309014 8.3556341266584082e-12 -1.6711268253316818e-12 2.5066902379975284e-12
37 1.838275071803949e-06 3.2525959439107972e-15 -3.5999990659525698e-05 -1.2000001868094892e-05 1.2000002802142299e-05 0.00028320758009293652 -5.6641516018587244e-05 8.4962274027880943e-05 1.2420735873678419e-11 -2.4841471747356843e-12 3.7262207621035247e-12
38 1.1793280896969313e-06 8.5882079348521546e-16 -3.5999980349771474e-05 -1.2000003930045715e-05 2.0000005895068581e-05 0.000554788376741699 -0.00011095767534833994 0.00016643651302250998 4.9504872413760256e-12 -9.9009744827520335e-13 1.485146172412804e-12
39 2.00944314690733e-06 4.2484038329125284e-15 -3.5999992047612209e-05 -1.2000001590477555e-05 2.8000002385716356e-05 0.00024319647803220534 -4.8639295606441241e-05 7.2958943409661808e-05 1.4334762415768016e-11 -2.8669524831536007e-12 4.3004287247303999e-12
40 2.4544711173223787e-06 7.742342870593321e-15 -3.5999994510805778e-05 -1.2000001097838865e-05 3.6000001646758279e-05 0.00017035479648424282 -3.4070959296848572e-05 5.1106438945272818e-05 1.9193846266688019e-11 -3.8387692533376037e-12 5.7581538800064059e-12
41 1.5295905571135205e-06 1.8738041817053471e-15 -3.599998711572e-05 -4.0000025768559927e-06 -3.5999996134716054e-05 0.00038180868339769068 -7.6361736679537884e-05 0.00011454260501930717 8.9140208942020432e-12 -1.7828041788404124e-12 2.6742062682606126e-12
42 3.1404422477514026e-06 1.6217020134893021e-14 -3.5999996566890647e-05 -4.0000006866218611e-06 -2.7999998970067231e-05 0.00010781017520553721 -2.1562035041107471e-05 3.234305256166126e-05 2.6408514664734775e-11 -5.2817029329469544e-12 7.9225543994204288e-12
43 1.738514601360805e-06 2.7512727709123915e-15 -3.5999989684827552e-05 -4.0000020630344846e-06 -1.9999996905448324e-05 0.00031084284359354124 -6.2168568718708363e-05 9.3252853078062747e-05 1.1294020551571683e-11 -2.2588041103143352e-12 3.3882061654714977e-12
44 1.4543932123564363e-06 1.6108093410591875e-15 -3.5999985969542988e-05 -4.0000028060914339e-06 -1.1999995790862877e-05 0.0004125657890052955 -8.2513157801059181e-05 0.00012376973670158865 8.0542982386647453e-12 -1.6108596477329484e-12 2.416289471599423e-12
45 2.2155742104234287e-06 5.6945252906195224e-15 -3.5999993354530311e-05 -4.0000013290939477e-06 -3.9999980063590535e-06 0.0002048368332751853 -4.0967366655037009e-05 6.1451049982555575e-05 1.6605939537300915e-11 -3.3211879074601843e-12 4.9817818611902727e-12
46 2.4500830610652638e-06 7.7008922286241729e-15 -3.5999994492315909e-05 -4.0000011015368269e-06 4.0000016523052312e-06 0.00017091015699962551 -3.4182031399924936e-05 5.1273047099887557e-05 1.9146712988751865e-11 -3.8293425977503763e-12 5.74401389662556e-12
47 2.1546849963153145e-06 5.2378129488031308e-15 -3.5999993003110076e-05 -4.0000013993779973e-06 1.2000002099067018e-05 0.00021521614455579451 -4.3043228911158754e-05 6.4564843366738181e-05 1.5938872512236561e-11 -3.1877745024473157e-12 4.7816617536709717e-12
48 1.7799314675864528e-06 2.9526261752814734e-15 -3.5999990106369253e-05 -4.0000019787261427e-06 2.0000002968089226e-05 0.00029893815881515911 -5.9787631763031722e-05 8.9681447644547458e-05 1.1762722529017899e-11 -2.3525445058035809e-12 3.5288167587053732e-12
49 2.1717811500020411e-06 5.3634816651670964e-15 -3.5999993104460862e-05 -4.0000013791078178e-06 2.8000002068661746e-05 0.00021222756648533425 -4.2445513297066944e-05 6.3668269945600366e-05 1.6126486701289582e-11 -3.2252973402579143e-12 4.8379460103868711e-12
50 2.8501659728790174e-06 1.21229712431302e-14 -3.599999586502695e-05 -4.0000008269946243e-06 3.6000001240491827e-05 0.00012933466802361734 -2.5866933604723508e-05 3.8800400407085358e-05 2.3389589715090481e-11 -4.677917943018096e-12 7.0168769145271403e-12
51 1.5239561751527053e-06 1.8531733942238767e-15 -3.5999987034461243e-05 3.9999974068922577e-06 -3.5999996110338262e-05 0.00038400789406860074 -7.68015788137203e-05 0.00011520236822058064 8.8496063303079503e-12 -1.7699212660615876e-12 2.6548818990923785e-12
52 2.888839937477119e-06 1.2623188302701288e-14 -3.5999995970172497e-05 3.9999991940344853e-06 -2.7999998791051751e-05 0.00012612151548568512 -2.522430309713699e-05 3.7836454645705423e-05 2.3794409266506961e-11 -4.7588818533013924e-12 7.138322779952089e-12
53 1.2333552060527399e-06 9.8234295820429518e-16 -3.5999981665811931e-05 3.999996333162383e-06 -1.9999994499743562e-05 0.0005228088746588854 -0.00010456177493177687 0.0001568426623976658 5.548968776357689e-12 -1.1097937552715407e-12 1.6646906329073044e-12
54 1.9825743300062004e-06 4.0802526776529182e-15 -3.5999991850300952e-05 3.999998370060205e-06 -1.1999997555090325e-05 0.00024893022422753358 -4.9786044845506791e-05 7.4679067268260319e-05 1.403598990481604e-11 -2.8071979809632069e-12 4.2107969714448073e-12
55 1.0173636179503471e-06 5.5134981155647523e-16 -3.599997559983996e-05 3.9999951199679787e-06 -3.9999926799519838e-06 0.00066294770624235257 -0.00013258954124847075 0.00019888431187270553 3.2335583656631004e-12 -6.4671167313261749e-13 9.7006750969893168e-13
56 1.5685202320673703e-06 2.0205471868112363e-15 -3.5999987658132483e-05 3.9999975316265031e-06 4.0000037025602394e-06 0.00036705646753981696 -7.3411293507963585e-05 0.00011011694026194538 9.3589154770856766e-12 -1.8717830954171331e-12 2.8076746431256971e-12
57 1.7573838179574151e-06 2.841832597554221e-15 -3.5999989879997061e-05 3.9999979759994224e-06 1.2000003036000888e-05 0.00030534007127533289 -6.1068014255066656e-05 9.160202138260037e-05 1.150771518536021e-11 -2.3015430370720407e-12 3.4523145556080544e-12
58 2.1451485658430518e-06 5.1685741164873534e-15 -3.5999992945631383e-05 3.9999985891262728e-06 2.0000002116310584e-05 0.00021690929092997037 -4.3381858185994399e-05 6.5072787278991066e-05 1.5834110260903101e-11 -3.1668220521806145e-12 4.7502330782709308e-12
59 2.3721711516621756e-06 6.989348289602856e-15 -3.5999994148229578e-05 3.9999988296459081e-06 2.8000001755531128e-05 0.00018122170061917522 -3.6244340123835049e-05 5.4366510185752471e-05 1.8307409077293398e-11 -3.6614818154586793e-12 5.492222723188021e-12
60 1.4625310357684355e-06 1.6379999901741967e-15 -3.5999986100272156e-05 3.9999972200544205e-06 3.6000004169918338e-05 0.00040908655288089105 -8.1817310576178618e-05 0.00012272596586426716 8.1473113724808654e-12 -1.6294622744961671e-12 2.4441934117442613e-12
61 1.1928422744233857e-06 8.8868467039724868e-16 -3.5999980690325102e-05 1.1999996138065013e-05 -3.5999994207097622e-05 0.00054659367269492608 -0.00010931873453898474 0.00016397810180847824 5.0993338782496013e-12 -1.0198667756499256e-12 1.5298001634748753e-12
62 2.812989898449193e-06 1.1654754776311362e-14 -3.5999995760093012e-05 1.1999999152018612e-05 -2.7999998728027936e-05 0.00013253732266586422 -2.6507464533172889e-05 3.9761196799759297e-05 2.2999636478767681e-11 -4.5999272957535357e-12 6.8998909436303023e-12
63 2.2139712321781337e-06 5.6821741844195441e-15 -3.5999993345611521e-05 1.1999998669122304e-05 -1.9999998003683488e-05 0.00020510083482637854 -4.1020166965275539e-05 6.1530250447913482e-05 1.6588418479584073e-11 -3.3176836959168182e-12 4.976525543875223e-12
64 3.0068932291967355e-06 1.4234841761316507e-14 -3.5999996267795358e-05 1.199999925355908e-05 -1.1999998880338633e-05 0.00011700458941868921 -2.3400917883737759e-05 3.5101376825606649e-05 2.5025029656097395e-11 -5.0050059312194813e-12 7.5075088968292196e-12
65 1.5180751390396209e-06 1.8318015680316931e-15 -3.5999986948878653e-05 1.199999738977573e-05 -3.9999960846636033e-06 0.00038632106714997212 -7.7264213429994338e-05 0.00011589632014499176 8.7823679075811615e-12 -1.7564735815162331e-12 2.6347103722743462e-12
66 2.1288791591253629e-06 5.0518640357199114e-15 -3.5999992845974535e-05 1.199999856919489e-05 4.0000021462076524e-06 0.0002198418675084149 -4.3968373501682941e-05 6.595256025252434e-05 1.5655202269086904e-11 -3.1310404538173826e-12 4.6965606807260729e-12
67 3.5423575286716169e-06 2.3274255574371962e-14 -3.5999997280090071e-05 1.1999999456017981e-05 1.2000000815973002e-05 8.5755847672446038e-05 -1.7151169534489182e-05 2.5726754301733749e-05 3.0524262471480334e-11 -6.1048524942960687e-12 9.157278741444101e-12
68 2.1814856823734121e-06 5.4357030470657583e-15 -3.5999993161044065e-05 1.1999998632208764e-05 2.0000002051686778e-05 0.00021055736287240576 -4.2111472574481152e-05 6.31672088617217e-05 1.6232873699242613e-11 -3.246574739848524e-12 4.8698621097727847e-12
69 3.5711859271487763e-06 2.3847123830202819e-14 -3.599999732256012e-05 1.1999999464512002e-05 2.8000000803231982e-05 8.4436791698724539e-05 -1.6887358339744883e-05 2.5331037509617406e-05 3.0817050970041005e-11 -6.1634101940082013e-12 9.2451152910122996e-12
70 1.5652299347446248e-06 2.0078582881323081e-15 -3.5999987613541666e-05 1.1999997522708286e-05 3.6000003715937491e-05 0.0003682739463036663 -7.3654789260733141e-05 0.00011048218389109963 9.3213278908331463e-12 -1.8642655781666311e-12 2.7963983672499485e-12
71 2.5267774544697368e-06 8.4469437448320342e-15 -3.5999994802818157e-05 1.9999998960563548e-05 -3.5999998440845503e-05 0.00016156703165363359 -3.2313406330726655e-05 4.8470109496089992e-05 1.9968467315741157e-11 -3.9936934631482338e-12 5.9905401947223479e-12
72 1.8861915876103843e-06 3.513630052584064e-15 -3.5999991081227664e-05 1.9999998216245519e-05 -2.7999997324368321e-05 0.00027113288759814743 -5.4226577519629543e-05 8.1339866279444041e-05 1.2959073588483125e-11 -2.5918147176966244e-12 3.8877220765449398e-12
73 1.5407852243331577e-06 1.9152476469866765e-15 -3.599998727506644e-05 1.9999997455013309e-05 -1.9999996182519907e-05 0.0003774878836599605 -7.5497576731991671e-05 0.00011324636509798829 9.0419886003860021e-12 -1.8083977200772066e-12 2.7125965801157991e-12
74 1.3961271313249609e-06 1.4248643583333813e-15 -3.5999984981911476e-05 1.9999996996382312e-05 -1.1999995494573451e-05 0.00043860751416611272 -8.7721502833222416e-05 0.00013158225424983341 7.3890403531401828e-12 -1.4778080706280387e-12 2.2167121059420602e-12
75 1.5133308434406108e-06 1.8146809204591908e-15 -3.599998687926153e-05 1.9999997375852344e-05 -3.9999960637784924e-06 0.00038820039286285916 -7.7640078572571865e-05 0.0001164601178588577 8.7281235872211398e-12 -1.745624717444227e-12 2.6184370761663415e-12
76 2.4113922857841744e-06 7.3417944962683445e-15 -3.5999994325260019e-05 1.9999998865052034e-05 4.0000017024219989e-06 0.00017592201761181068 -3.5184403522362125e-05 5.2776605283543147e-05 1.8730497781624573e-11 -3.7460995563249159e-12 5.619149334487373e-12
77 1.8368486259271223e-06 3.2450300695009636e-15 -3.5999990646536244e-05 1.9999998129307233e-05 1.2000002806039098e-05 0.0002835783784028822 -5.6715675680576372e-05 8.5073513520864385e-05 1.2404680678531926e-11 -2.4809361357063868e-12 3.7214042035595826e-12
78 2.3407406403703541e-06 6.71519314936019e-15 -3.5999994000468217e-05 1.9999998800093688e-05 2.0000001799859522e-05 0.00018563613991529185 -3.712722798305832e-05 5.5690841974587596e-05 1.796749379889228e-11 -3.5934987597784563e-12 5.3902481396676826e-12
79 3.5532049687596403e-06 2.3488722903573552e-14 -3.5999997296187024e-05 1.9999999459237414e-05 2.8000000811143917e-05 8.5255973154728468e-05 -1.7051194630945759e-05 2.5576791946418597e-05 3.0634466411173124e-11 -6.1268932822346232e-12 9.1903399233519357e-12
80 1.3746311392391866e-06 1.3600571418018549e-15 -3.5999984593353719e-05 1.9999996918670763e-05 3.6000004621993835e-05 0.00044873404763594565 -8.9746809527189048e-05 0.00013462021429078367 7.1441041192640523e-12 -1.428820823852812e-12 2.1432312357792158e-12
81 2.7063117774932587e-06 1.0378440621183051e-14 -3.5999995436216202e-05 2.7999999087243252e-05 -3.5999998630864835e-05 0.00014239682885931141 -2.8479365771862261e-05 4.2719048657793447e-05 2.1876038987893056e-11 -4.375207797578612e-12 6.5628116963679151e-12
82 1.4952839642907711e-06 1.7505303707986051e-15 -3.5999986609653952e-05 2.7999997321930777e-05 -2.7999995982896191e-05 0.00039545881292910989 -7.9091762585822105e-05 0.00011863764387873306 8.5217731890271174e-12 -1.7043546378054212e-12 2.5565319567081344e-12
83 1.1347420564937832e-06 7.6505045195196284e-16 -3.5999979169235269e-05 2.7999995833847005e-05 -1.9999993750770596e-05 0.00058275154537306404 -0.00011655030907461241 0.00017482546361191807 4.4642938868036601e-12 -8.928587773607363e-13 1.3392881660411099e-12
84 2.404537071864627e-06 7.2793575855935781e-15 -3.5999994294888535e-05 2.7999998858977651e-05 -1.1999998288466553e-05 0.00017683207248722163 -3.5366414497444532e-05 5.3049621746166575e-05 1.8656634324091063e-11 -3.7313268648182094e-12 5.5969902972273154e-12
85 1.6634270012735487e-06 2.4099601577775861e-15 -3.599998885266319e-05 2.7999997770532639e-05 -3.9999966557989021e-06 0.00033413059372986424 -6.6826118745972839e-05 0.0001002391781189587 1.0441243695424921e-11 -2.0882487390849841e-12 3.132373108627485e-12
86 2.1481389251823572e-06 5.1902193999159779e-15 -3.599999296372875e-05 2.7999998592745705e-05 4.0000021108813709e-06 0.00021637633390000742 -4.3275266780001459e-05 6.4912900170002209e-05 1.5866969202404017e-11 -3.1733938404808038e-12 4.760090760721204e-12
87 1.929205059167125e-06 3.7595321125248757e-15 -3.5999991436838658e-05 2.7999998287367773e-05 1.2000002568948391e-05 0.00026089564123021175 -5.2179128246042193e-05 7.8268692369063358e-05 1.3440670214474756e-11 -2.6881340428949544e-12 4.0322010643424292e-12
88 1.0726348608432138e-06 6.461812392030408e-16 -3.5999977368702767e-05 2.7999995473740505e-05 2.0000006789389141e-05 0.00062404098032864039 -0.0001248081960657282 0.00018721229409859248 3.8025586500102117e-12 -7.6051173000204148e-13 1.1407675950030605e-12
89 1.7505161188047914e-06 2.8086457427040377e-15 -3.599998980957748e-05 2.7999997961915428e-05 2.8000003057126776e-05 0.00030732733074635249 -6.1465466149270261e-05 9.2198199223905223e-05 1.1429968202980752e-11 -2.2859936405961541e-12 3.4289904608942338e-12
90 1.71394917242544e-06 2.6362854839937769e-15 -3.5999989422603234e-05 2.7999997884520618e-05 3.6000003173218979e-05 0.00031821175536918543 -6.3642351073837182e-05 9.5463526610755386e-05 1.1015437285482952e-11 -2.2030874570965887e-12 3.3046311856448893e-12
91 2.5440698738770457e-06 8.6215574789154055e-15 -3.5999994869271836e-05 3.5999998973854442e-05 -3.5999998460781656e-05 0.00015956274580310666 -3.1912549160621418e-05 4.7868823740932212e-05 2.0153162351779945e-11 -4.0306324703559879e-12 6.0459487055339774e-12
92 2.0005875535290661e-06 4.192482997131548e-15 -3.5999991983351797e-05 3.5999998396670281e-05 -2.7999997595005512e-05 0.00024506552029504342 -4.9013104059008765e-05 7.351965608851312e-05 1.4236361000953702e-11 -2.8472722001907393e-12 4.2709083002861094e-12
93 1.7365787341756282e-06 2.7420922265003203e-15 -3.5999989664501498e-05 3.5999997932900275e-05 -1.9999996899350399e-05 0.00031141504458490971 -6.2283008916981695e-05 9.3424513375472672e-05 1.127208225586743e-11 -2.2544164511734898e-12 3.3816246767602324e-12
94 1.6846793412667079e-06 2.5035160103360851e-15 -3.5999989097601253e-05 3.5999997819520205e-05 -1.19999967292804e-05 0.00032730569637759872 -6.5461139275519844e-05 9.8191708913280315e-05 1.0682974958266238e-11 -2.1365949916532455e-12 3.2048924874798604e-12
95 1.5736670924019422e-06 2.0405028792639314e-15 -3.5999987727432693e-05 3.5999997545486622e-05 -3.9999963182298206e-06 0.00036516267343206211 -7.3032534686412714e-05 0.00010954880202961898 9.4177054288785312e-12 -1.8835410857757013e-12 2.8253116286635534e-12
96 1.3248250609402746e-06 1.2175147371647841e-15 -3.5999983638670521e-05 3.5999996727734066e-05 4.0000049083988774e-06 0.00047332524429656147 -9.4665048859311835e-05 0.0001419975732889678 6.5782650979628819e-12 -1.3156530195925821e-12 1.9734795293888712e-12
97 2.0478320756461223e-06 4.4965729731903056e-15 -3.5999992317731802e-05 3.5999998463546352e-05 1.2000002304680449e-05 0.00023532231714671831 -4.7064463429343479e-05 7.059669514401524e-05 1.4760536428685912e-11 -2.9521072857371865e-12 4.4281609286057773e-12
98 2.8576129743012729e-06 1.2218245563496851e-14 -3.5999995885585808e-05 3.5999999177117223e-05 2.0000001234324246e-05 0.00012870672279638063 -2.5741344559276093e-05 3.8612016838914143e-05 2.3467607519229984e-11 -4.6935215038459973e-12 7.0402822557689955e-12
99 1.3822872660854447e-06 1.3829088120158903e-15 -3.5999984733309101e-05 3.5999996946661826e-05 2.8000004580007292e-05 0.00044509435586552172 -8.9018871173104203e-05 0.00013352830675965674 7.2313011533537904e-12 -1.4462602306707598e-12 2.1693903460061338e-12
100 3.2384080310726104e-06 1.7782520820684228e-14 -3.5999996764281626e-05 3.5999999352856306e-05 3.6000000970715588e-05 0.00010172452661170252 -2.0344905322340573e-05 3.0517357983510805e-05 2.7417984822743907e-11 -5.4835969645487802e-12 8.2253954468231691e-12
101 2.2822704336011917e-06 6.2244349783506748e-15 -2.7999993710695849e-05 -3.600000125786076e-05 -3.599999811320872e-05 0.00019426928417942251 -3.885385683588448e-05 5.8280785253826797e-05 1.7333052562292634e-11 -3.4666105124585273e-12 5.1999157686877883e-12
102 2.2568605441711303e-06 6.0188399413840247e-15 -2.7999993578364603e-05 -3.6000001284327178e-05 -2.7999998073509382e-05 0.00019820122766971119 -3.9640245533942224e-05 5.9460368300913289e-05 1.7056471896867056e-11 -3.4112943793734115e-12 5.1169415690601165e-12
103 2.2472541203189021e-06 5.9423082758152748e-15 -2.7999993527275852e-05 -3.6000001294544795e-05 -1.999999805818276e-05 0.00019971744207315285 -3.9943488414630626e-05 5.9915232621945867e-05 1.6951769560480749e-11 -3.3903539120961495e-12 5.0855308681442242e-12
104 2.6434115504026178e-06 9.6714807617872304e-15 -2.7999995227899747e-05 -3.6000000954420036e-05 -1.1999998568369939e-05 0.0001487180359390128 -2.9743607187802539e-05 4.4615410781703628e-05 2.1210177588495591e-11 -4.2420355176991191e-12 6.3630532765486827e-12
105 1.7254109923689289e-06 2.6895294489537447e-15 -2.7999989546120501e-05 -3.6000002090775748e-05 -3.9999968638361375e-06 0.00031474423118102722 -6.2948846236205304e-05 9.4423269354308281e-05 1.1145471718541908e-11 -2.2290943437083837e-12 3.3436415155625701e-12
106 1.7798342765228924e-06 2.9521425276565213e-15 -2.799999010540916e-05 -3.6000001978918264e-05 4.0000029683772562e-06 0.00029896535679587512 -5.9793071359174851e-05 8.9689607038762737e-05 1.1761624152795299e-11 -2.3523248305590622e-12 3.5284872458385857e-12
107 1.9563607103590048e-06 3.9205357571294807e-15 -2.7999991650908772e-05 -3.6000001669818283e-05 1.2000002504727352e-05 0.000254708943853267 -5.0941788770653521e-05 7.6412683155980244e-05 1.3743894145020507e-11 -2.7487788290040991e-12 4.1231682435061486e-12
108 2.605045582563822e-06 9.2564530571336323e-15 -2.7999995093899236e-05 -3.6000000981220206e-05 2.0000001471830251e-05 0.00015277571198714772 -3.0555142397429678e-05 4.5832713596144575e-05 2.0802754849303835e-11 -4.1605509698607655e-12 6.2408264547911462e-12
109 1.8819761638381886e-06 3.4901249709318142e-15 -2.7999991045238903e-05 -3.6000001790952275e-05 2.8000002686428377e-05 0.00027216612967232432 -5.4433225934464692e-05 8.1649838901697014e-05 1.2911790962049401e-11 -2.5823581924098837e-12 3.8735372886148259e-12
110 1.6805823455654924e-06 2.4852953844616186e-15 -2.7999989050980886e-05 -3.6000002189803834e-05 3.6000003284705821e-05 0.00032860662288523347 -6.5721324577046789e-05 9.8581986865570339e-05 1.0636395562173375e-11 -2.1272791124346734e-12 3.1909186686520071e-12
111 2.3809329366643677e-06 7.0670816817333603e-15 -2.7999994188471549e-05 -2.8000001162305708e-05 -3.5999998256541501e-05 0.00018001802934029714 -3.6003605868059452e-05 5.4005408802089181e-05 1.8402028096301805e-11 -3.6804056192603597e-12 5.5206084288905395e-12
112 2.91201644438243e-06 1.2929451212292451e-14 -2.7999996031303212e-05 -2.8000000793739399e-05 -2.7999998809390939e-05 0.00012425155960662921 -2.4850311921325907e-05 3.7275467881988712e-05 2.4036605322726584e-11 -4.8073210645453147e-12 7.2109815968179749e-12
113 2.0266708874042625e-06 4.3586129950437292e-15 -2.7999992170507056e-05 -2.8000001565898615e-05 -1.9999997651152106e-05 0.00023961753883451671 -4.792350776690326e-05 7.1885261650354968e-05 1.4525996235302869e-11 -2.9051992470605759e-12 4.35779887059086e-12
114 1.3734593630458104e-06 1.3565820470971653e-15 -2.7999984571778589e-05 -2.8000003085644305e-05 -1.1999995371533591e-05 0.00044929435114140495 -8.985887022828145e-05 0.00013478830534242184 7.1307628622895458e-12 -1.4261525724579031e-12 2.1392288586868586e-12
115 1.437084087548033e-06 1.5539790661254817e-15 -2.7999985685758459e-05 -2.8000002862848304e-05 -3.9999957057275342e-06 0.00042009266966589538 -8.4018533933179267e-05 0.00012602780089976916 7.8565198314521389e-12 -1.5713039662904253e-12 2.3569559494356328e-12
116 4.0387418299309832e-06 3.4493471088756135e-14 -2.7999997893323845e-05 -2.8000000421335258e-05 4.0000006320028185e-06 6.6647555137481259e-05 -1.3329511027496248e-05 1.9994266541244366e-05 3.5528581324810072e-11 -7.1057162649620146e-12 1.0658574397443021e-11
117 1.9243790731250478e-06 3.7313887578226014e-15 -2.7999991397968244e-05 -2.8000001720406362e-05 1.2000002580609558e-05 0.00026201707345756357 -5.2403414691512791e-05 7.860512203726919e-05 1.338671566790064e-11 -2.6773431335801262e-12 4.0160147003701894e-12
118 1.2399864051405386e-06 9.9827315721456268e-16 -2.7999981819224721e-05 -2.8000003636155036e-05 2.0000005454232594e-05 0.00051902666373736554 -0.00010380533274747302 0.0001557079991212098 5.6229984346195536e-12 -1.1245996869239118e-12 1.686899530385864e-12
119 2.2438279472175594e-06 5.9151706872707102e-15 -2.7999993508911317e-05 -2.8000001298217714e-05 2.8000001947326685e-05 0.00020026222273641451 -4.0052444547282946e-05 6.0078666820924585e-05 1.6914408503492565e-11 -3.3828817006985124e-12 5.0743225510477648e-12
120 1.7626926414621109e-06 2.8676648749653663e-15 -2.7999989933957199e-05 -2.8000002013208518e-05 3.6000003019812788e-05 0.00030381593991690416 -6.0763187983380822e-05 9.1144781975070925e-05 1.1567790779672905e-11 -2.3135581559345817e-12 3.4703372339018758e-12
121 2.3246431541391542e-06 6.5776007562071387e-15 -2.7999993922669673e-05 -2.0000001215466064e-05 -3.5999998176800905e-05 0.000187957098633177 -3.7591419726635345e-05 5.638712958995321e-05 1.7793099423669292e-11 -3.5586198847338603e-12 5.3379298271007843e-12
122 1.8430123958975612e-06 3.2778070957003208e-15 -2.7999990702478862e-05 -2.0000001859504157e-05 -2.7999997210743638e-05 0.00028198094115202592 -5.6396188230405207e-05 8.4594282345608031e-05 1.2474044294799821e-11 -2.4948088589599635e-12 3.7422132884399405e-12
123 2.5599579439528795e-06 8.7840968221168111e-15 -2.7999994929234794e-05 -2.0000001014153075e-05 -1.9999998478770465e-05 0.00015775282123997353 -3.1550564247994805e-05 4.7325846371992238e-05 2.0322671704242214e-11 -4.0645343408484408e-12 6.0968015112726604e-12
124 1.8594633369482586e-06 3.3663671616386901e-15 -2.7999990849456436e-05 -2.0000001830108681e-05 -1.1999997254836976e-05 0.00027777802996536787 -5.555560599307389e-05 8.3333408989610553e-05 1.2659020456532232e-11 -2.5318040913064417e-12 3.7977061369596654e-12
125 3.1888103358810381e-06 1.6977928075252485e-14 -2.799999666651053e-05 -2.0000000666697835e-05 -3.9999989999531417e-06 0.00010474060951376107 -2.0948121902752246e-05 3.1422182854128342e-05 2.6907461430181096e-11 -5.3814922860362191e-12 8.0722384290543287e-12
126 2.7393393577563023e-06 1.0763069242907726e-14 -2.7999995540276349e-05 -2.0000000891944774e-05 4.0000013379170808e-06 0.00013923321236323716 -2.78466424726474e-05 4.1769963708971144e-05 2.222465470869794e-11 -4.4449309417395881e-12 6.6673964126093813e-12
127 1.930348052153915e-06 3.7662182839522241e-15 -2.7999991446007782e-05 -2.0000001710798442e-05 1.2000002566197633e-05 0.00026063102301916144 -5.2126204603832312e-05 7.8189306905748204e-05 1.3453445932729139e-11 -2.6906891865458282e-12 4.036033779818745e-12
128 1.3828601332071697e-06 1.3846288988166295e-15 -2.7999984743710905e-05 -2.0000003051257812e-05 2.0000004576886747e-05 0.00044482349126974782 -8.8964698253949571e-05 0.00013344704738092432 7.2378275447457854e-12 -1.4475655089491571e-12 2.1713482634237356e-12
129 2.7882964138750448e-06 1.1350511756613033e-14 -2.7999995688208153e-05 -2.0000000862358333e-05 2.8000001293537542e-05 0.00013472897826909277 -2.6945795653818513e-05 4.041869348072777e-05 2.2740166994502751e-11 -4.5480333989005513e-12 6.8220500983508269e-12
130 1.6930766829742917e-06 2.5411395074501395e-15 -2.7999989192278444e-05 -2.0000002161544301e-05 3.6000003242316437e-05 0.00032466099779815345 -6.4932199559630642e-05 9.7398299339446003e-05 1.0778412951599117e-11 -2.1556825903198234e-12 3.2335238854797337e-12
131 1.3803043622310728e-06 1.3769659588491286e-15 -2.7999984697228939e-05 -1.2000003060554238e-05 -3.5999995409168651e-05 0.0004460334993081683 -8.9206699861633679e-05 0.00013381004979245038 7.2087129154024111e-12 -1.441742583080482e-12 2.162613874620724e-12
132 9.9618244193068405e-07 5.1762503266703794e-16 -2.7999974877559562e-05 -1.2000005024488077e-05 -2.7999992463267839e-05 0.00067834691070334816 -0.00013566938214066914 0.0002035040732110042 3.0216487149021626e-12 -6.0432974298043765e-13 9.0649461447065153e-13
133 2.8772064960175277e-06 1.2471299781230799e-14 -2.7999995938962676e-05 -1.2000000812207469e-05 -1.999999878168881e-05 0.0001270756782012648 -2.5415135640252915e-05 3.8122703460379315e-05 2.367272562111618e-11 -4.7345451242232381e-12 7.1018176863348567e-12
134 1.4008366097465375e-06 1.4393323010366838e-15 -2.7999985065238344e-05 -1.2000002986952294e-05 -1.1999995519571506e-05 0.00043642706648767791 -8.7285413297535615e-05 0.0001309281199463034 7.4427468044024504e-12 -1.4885493608804894e-12 2.2328240413207344e-12
135 2.7466913133725531e-06 1.0849961181152736e-14 -2.7999995562964324e-05 -1.2000000887407108e-05 -3.9999986688893097e-06 0.00013854293006275255 -2.7708586012550578e-05 4.156287901882563e-05 2.2302163892109468e-11 -4.4604327784218929e-12 6.6906491676328434e-12
136 1.8838824518007823e-06 3.5007413508105229e-15 -2.799999106153948e-05 -1.2000001787692116e-05 4.0000026815381477e-06 0.00027169820193552685 -5.4339640387105427e-05 8.1509460580658053e-05 1.293317485305055e-11 -2.5866349706101088e-12 3.8799524559151642e-12
137 1.9053593732699798e-06 3.6218405329301698e-15 -2.7999991242273712e-05 -1.2000001751545242e-05 1.2000002627317884e-05 0.00026650294128187358 -5.3300588256374711e-05 7.995088238456207e-05 1.3173879919373427e-11 -2.634775983874685e-12 3.9521639758120267e-12
138 1.975434065983146e-06 4.0363260310718858e-15 -2.7999991796676691e-05 -1.200000164066466e-05 2.0000002460997011e-05 0.00025048588287024327 -5.009717657404877e-05 7.5145764861073077e-05 1.3956486153222929e-11 -2.7912972306445844e-12 4.1869458459668774e-12
139 1.3008952011602243e-06 1.1527245888149675e-15 -2.7999983151276906e-05 -1.2000003369744613e-05 2.8000005054616877e-05 0.00048571904926140536 -9.7143809852281022e-05 0.00014571571477842149 6.307514432934647e-12 -1.26150288658693e-12 1.8922543298803961e-12
140 1.9217397828800578e-06 3.716056980303502e-15 -2.799999137660259e-05 -1.2000001724679502e-05 3.600000258701923e-05 0.00026263322704896862 -5.2526645409793831e-05 7.8789968114690472e-05 1.3357199883490603e-11 -2.6714399766981192e-12 4.0071599650471824e-12
141 3.0179666794695575e-06 1.4392689091461547e-14 -2.799999629403226e-05 -4.0000007411935503e-06 -3.5999998888209688e-05 0.00011619934494258351 -2.3239868988516587e-05 3.4859803482775037e-05 2.5140083110577103e-11 -5.028016622115424e-12 7.5420249331731283e-12
142 1.3944586969693619e-06 1.4197621307033015e-15 -2.7999984952237847e-05 -4.0000030095524409e-06 -2.7999995485671364e-05 0.00043938324858667339 -8.7876649717334739e-05 0.00013181497457600199 7.3700172091301835e-12 -1.474003441826036e-12 2.2110051627390551e-12
143 1.4218844400998722e-06 1.505190703707255e-15 -2.7999985429969915e-05 -4.0000029140060368e-06 -1.9999995628990974e-05 0.0004268466333242305 -8.5369326664846203e-05 0.00012805398999726913 7.6829343935399427e-12 -1.5365868787079874e-12 2.3048803180619826e-12
144 1.8928723930716906e-06 3.5510978059900177e-15 -2.7999991137839625e-05 -4.0000017724320807e-06 -1.1999997341351888e-05 0.00026950651311546204 -5.3901302623092531e-05 8.0851953934638613e-05 1.3033978468313881e-11 -2.6067956936627743e-12 3.9101935404941643e-12
145 2.6872115092104047e-06 1.0160244872324613e-14 -2.7999995374397337e-05 -4.000000925120513e-06 -3.9999986123192072e-06 0.00014427434163214302 -2.8854868326428628e-05 4.3282302489642909e-05 2.1674114530496645e-11 -4.3348229060993277e-12 6.5022343591489915e-12
146 2.4761274805115385e-06 7.9490938142190814e-15 -2.7999994600739442e-05 -4.0000010798521075e-06 4.0000016197781589e-06 0.00016765173989198953 -3.3530347978397974e-05 5.029552196759691e-05 1.9426253386524006e-11 -3.8852506773048005e-12 5.8278760159572011e-12
147 2.5316218109319024e-06 8.495620578701279e-15 -2.7999994821561504e-05 -4.0000010356876919e-06 1.2000001553531531e-05 0.00016100188508083807 -3.2200377016167509e-05 4.8300565524251318e-05 2.0020229835140606e-11 -4.0040459670281246e-12 6.0060689505421832e-12
148 1.9489923895895351e-06 3.8764041708743108e-15 -2.7999991593593976e-05 -4.0000016812812102e-06 2.0000002521921811e-05 0.00025636713132153667 -5.1273426264307301e-05 7.6910139396460853e-05 1.366168174587717e-11 -2.7323363491754342e-12 4.0985045237631527e-12
149 1.7266431691383123e-06 2.6952956279900375e-15 -2.7999989559276458e-05 -4.0000020881447255e-06 2.800000313221707e-05 0.00031437453360495527 -6.2874906720990779e-05 9.4312360081486425e-05 1.1159445393683067e-11 -2.2318890787366171e-12 3.3478336181049213e-12
150 1.3616442605217198e-06 1.3218726035361596e-15 -2.7999984351905905e-05 -4.0000031296188326e-06 3.6000004694428115e-05 0.00045499243779162455 -9.0998487558324943e-05 0.00013649773133748739 6.9963108036860014e-12 -1.3992621607372e-12 2.0988932411057999e-12
151 2.0840815420855989e-06 4.7396114939162071e-15 -2.7999992560761498e-05 3.9999985121523045e-06 -3.5999997768228349e-05 0.00022821360301886987 -4.5642720603773884e-05 6.8464080905660915e-05 1.5161396381656492e-11 -3.0322792763313008e-12 4.5484189144969476e-12
152 2.70720904814492e-06 1.0388766879292456e-14 -2.7999995439090237e-05 3.9999990878180386e-06 -2.7999998631727063e-05 0.0001423095052450873 -2.8461901049017504e-05 4.2692851573526095e-05 2.1885519037347233e-11 -4.3771038074694455e-12 6.5656557112041711e-12
153 2.6334706346576561e-06 9.562777747188816e-15 -2.7999995193700696e-05 3.9999990387401365e-06 -1.9999998558110239e-05 0.00014975424866301351 -2.9950849732602698e-05 4.4926274598903989e-05 2.1104705883759361e-11 -4.2209411767518723e-12 6.3314117651278092e-12
154 1.7233684640790553e-06 2.6799892185665239e-15 -2.7999989524260326e-05 3.9999979048520582e-06 -1.1999996857278091e-05 0.00031535837049218442 -6.3071674098436948e-05 9.4607511147655341e-05 1.1122305819937075e-11 -2.224461163987414e-12 3.3366917459811222e-12
155 1.6014687584249535e-06 2.150572236341038e-15 -2.7999988092461602e-05 3.9999976184923094e-06 -3.9999964277384803e-06 0.00035515390772735816 -7.1030781545471409e-05 0.00010654617231820709 9.7351115476618082e-12 -1.9470223095323648e-12 2.9205334642985478e-12
156 3.9867137581955854e-06 3.3177509867493157e-14 -2.799999783926774e-05 3.9999995678535412e-06 4.0000006482196675e-06 6.8337296501874451e-05 -1.3667459300374936e-05 2.0501188950562447e-05 3.500743271511631e-11 -7.0014865430232601e-12 1.0502229814534889e-11
157 2.0999530080129359e-06 4.8487227446527228e-15 -2.7999992663669099e-05 3.9999985327338168e-06 1.200000220089927e-05 0.00022519662291502429 -4.5039324583004924e-05 6.7558986874507237e-05 1.5336547691719893e-11 -3.0673095383439778e-12 4.6009643075159689e-12
158 2.8949693893433766e-06 1.2703709388348319e-14 -2.7999995986474102e-05 3.9999991972948142e-06 2.0000001204057733e-05 0.00012562299098426281 -2.5124598196852576e-05 3.7686897295278753e-05 2.3858491591025091e-11 -4.7716983182050188e-12 7.1575474773075282e-12
159 2.1898459754910616e-06 5.4984379796876811e-15 -2.7999993209248973e-05 3.9999986418497878e-06 2.8000002037225314e-05 0.00020913349369544582 -4.1826698739089059e-05 6.2740048108633721e-05 1.6324460057343373e-11 -3.2648920114686768e-12 4.8973380172030112e-12
160 1.850665169239829e-06 3.3188083668266404e-15 -2.7999990771269488e-05 3.9999981542539012e-06 3.600000276861917e-05 0.00028001490630091711 -5.6002981260183673e-05 8.400447189027534e-05 1.2560120795259699e-11 -2.5120241590519356e-12 3.7680362385779048e-12
161 3.4115617139367397e-06 2.0790183285326809e-14 -2.7999997074260379e-05 1.1999999414852069e-05 -3.5999999122278108e-05 9.2139463703015689e-05 -1.8427892740603124e-05 2.7641839110904653e-05 2.9192042824300629e-11 -5.8384085648601276e-12 8.7576128472901893e-12
162 2.3746015608998737e-06 7.010853129078512e-15 -2.7999994159433051e-05 1.1999998831886585e-05 -2.7999998247829881e-05 0.00018088665904941688 -3.6177331809883371e-05 5.4265997714824972e-05 1.8333661204193483e-11 -3.6667322408386962e-12 5.5000983612580467e-12
163 1.9883637338311137e-06 4.1161019432882314e-15 -2.7999991893409165e-05 1.1999998378681818e-05 -1.9999997568022761e-05 0.00024767882873511881 -4.9535765747023786e-05 7.430364862053575e-05 1.4100419656633795e-11 -2.8200839313267584e-12 4.2301258969901365e-12
164 1.7600160173060538e-06 2.8546211745307366e-15 -2.7999989906802898e-05 1.1999997981360571e-05 -1.1999996972040854e-05 0.00030458307588059758 -6.0916615176119542e-05 9.1374922764179164e-05 1.1537504238452598e-11 -2.3075008476905187e-12 3.4612512715357813e-12
165 1.5068939881683846e-06 1.7916233876358816e-15 -2.7999986783976109e-05 1.1999997356795216e-05 -3.9999960351928389e-06 0.00039076926442139262 -7.8153852884278374e-05 0.00011723077932641776 8.6545248392803889e-12 -1.7309049678560795e-12 2.5963574517841165e-12
166 1.6620740173303291e-06 2.4040843615966286e-15 -2.7999988836806173e-05 1.199999776736122e-05 4.0000033489581464e-06 0.00033457157070759471 -6.6914314141518859e-05 0.00010037147121227859 1.0425845372022421e-11 -2.0851690744044848e-12 3.1277536116067232e-12
167 1.9301280909204775e-06 3.7649309602119291e-15 -2.7999991444244398e-05 1.199999828884888e-05 1.2000002566726666e-05 0.00026068191781773004 -5.2136383563546142e-05 7.8204575345318966e-05 1.3450987420372577e-11 -2.6901974840745132e-12 4.0352962261117738e-12
168 1.1561316764210571e-06 8.0913413575536157e-16 -2.7999979746730533e-05 1.1999995949346098e-05 2.0000006075980829e-05 0.00056915919134925368 -0.00011383183826985078 0.00017074775740477549 4.6965404086350761e-12 -9.3930808172701489e-13 1.408962122590529e-12
169 1.9310860903442433e-06 3.7705397986141843e-15 -2.799999145192081e-05 1.1999998290384129e-05 2.8000002564423679e-05 0.00026046035669242241 -5.2092071338484391e-05 7.8138107007726766e-05 1.3461694698693346e-11 -2.6923389397386706e-12 4.0385084096080015e-12
170 1.5225742370058702e-06 1.848136537974325e-15 -2.7999987014421658e-05 1.199999740288432e-05 3.6000003895673451e-05 0.00038454981919216661 -7.6909963838432967e-05 0.00011536494575765013 8.8338068402233331e-12 -1.7667613680446712e-12 2.6501420520669965e-12
171 3.2054625859836748e-06 1.724530020195587e-14 -2.7999996699818887e-05 1.999999933996375e-05 -3.5999999009945635e-05 0.00010371348406448846 -2.0742696812897594e-05 3.111404521934647e-05 2.7078991024296525e-11 -5.4157982048593074e-12 8.1236973072889575e-12
172 1.432193866509741e-06 1.5381689871684338e-15 -2.799998560414471e-05 1.9999997120828884e-05 -2.7999995681243421e-05 0.00042225077293766167 -8.4450154587532384e-05 0.0001266752318812987 7.8006613453222714e-12 -1.5601322690644543e-12 2.3401984035966794e-12
173 2.2375882491690953e-06 5.8659605814434587e-15 -2.7999993475270306e-05 1.9999998695054043e-05 -1.9999998042581122e-05 0.00020125984421877612 -4.0251968843755315e-05 6.0377953265632976e-05 1.6846342003869299e-11 -3.3692684007738583e-12 5.053902601160786e-12
174 1.5407706171975308e-06 1.9151931760264024e-15 -2.7999987274860295e-05 1.9999997454972065e-05 -1.1999996182458072e-05 0.0003774934796772613 -7.5498695935452429e-05 0.00011324804390317882 9.0418216386977435e-12 -1.8083643277395465e-12 2.7125464916093163e-12
175 2.1960041401523457e-06 5.5449557660554928e-15 -2.7999993244440844e-05 1.9999998648888135e-05 -3.9999979733322529e-06 0.00020809344347538292 -4.1618688695076675e-05 6.2428033042614969e-05 1.6391884328110618e-11 -3.278376865622122e-12 4.9175652984331843e-12
176 1.464120774740248e-06 1.6433472078352119e-15 -2.7999986125612799e-05 1.999999722512257e-05 4.0000041623161613e-06 0.00040841127047843014 -8.1682254095686056e-05 0.0001225233811435295 8.1654833403182673e-12 -1.6330966680636536e-12 2.4496450020954728e-12
177 1.9330139078731357e-06 3.7818435490440308e-15 -2.7999991467338277e-05 1.9999998293467639e-05 1.2000002559798482e-05 0.0002600152987818808 -5.2003059756376141e-05 7.8004589634564204e-05 1.3483238942004164e-11 -2.696647788400833e-12 4.044971682601249e-12
178 1.9855045097205159e-06 4.0983708675304412e-15 -2.7999991872160557e-05 1.9999998374432106e-05 2.0000002438351802e-05 0.00024829574984463663 -4.9659149968927278e-05 7.4488724953391191e-05 1.4068603277600634e-11 -2.8137206555201274e-12 4.2205809832801849e-12
179 1.8430704853097082e-06 3.2781170424307268e-15 -2.7999990703003687e-05 1.9999998140600747e-05 2.8000002789098843e-05 0.00028196594573689073 -5.6393189147378119e-05 8.4589783721067142e-05 1.2474697852060064e-11 -2.4949395704120129e-12 3.7424093556180197e-12
180 3.067190919350793e-06 1.5108489658011962e-14 -2.7999996407423737e-05 1.9999999281484758e-05 3.6000001077772753e-05 0.00011271633817914701 -2.2543267635829413e-05 3.3814901453744122e-05 2.5650769010116087e-11 -5.1301538020232176e-12 7.6952307030348252e-12
181 2.2144882072964876e-06 5.6861555757973018e-15 -2.7999993348489809e-05 2.7999998669697961e-05 -3.5999998004546956e-05 0.00020501563885234211 -4.1003127770468461e-05 6.1504691655702654e-05 1.6594069416690745e-11 -3.3188138833381473e-12 4.9782208250072215e-12
182 2.340372731049692e-06 6.7120272362170318e-15 -2.7999993998706428e-05 2.7999998799741289e-05 -2.7999998199611927e-05 0.00018568872462055411 -3.7137744924110712e-05 5.5706617386166054e-05 1.7963510305924015e-11 -3.5927020611848057e-12 5.3890530917772057e-12
183 1.656723623660112e-06 2.3809420069315106e-15 -2.7999988773785682e-05 2.7999997754757125e-05 -1.9999996632135641e-05 0.00033632312945032511 -6.7264625890064885e-05 0.00010089693883509736 1.036494226942138e-11 -2.0729884538842781e-12 3.109482680826416e-12
184 2.9625915248179081e-06 1.3614884161453351e-14 -2.7999996160035222e-05 2.7999999232007061e-05 -1.199999884801056e-05 0.00012030927048018472 -2.406185409603695e-05 3.6092781144055357e-05 2.4564094126140088e-11 -4.9128188252280177e-12 7.3692282378420265e-12
185 1.7848440593791744e-06 2.9771413624999711e-15 -2.7999990154728883e-05 2.7999998030945777e-05 -3.9999970464186608e-06 0.00029756783741311757 -5.9513567482623485e-05 8.9270351223935261e-05 1.181823129012804e-11 -2.3636462580256086e-12 3.5454693870384105e-12
186 2.4962489625085322e-06 8.1444603705001541e-15 -2.7999994682375739e-05 2.7999998936475179e-05 4.0000015952872634e-06 0.00016519545461260058 -3.3039090922520089e-05 4.9558636383780154e-05 1.9641879197280445e-11 -3.9283758394560878e-12 5.8925637591841316e-12
187 1.8040808174514906e-06 3.0744440114457608e-15 -2.7999990340875462e-05 2.7999998068175121e-05 1.2000002897737374e-05 0.00029228435164459904 -5.8456870328919906e-05 8.7685305493379696e-05 1.2035412469301677e-11 -2.407082493860334e-12 3.6106237407905038e-12
188 1.187738070212102e-06 8.7732529950753756e-16 -2.7999980562615982e-05 2.7999996112523108e-05 2.0000005831215219e-05 0.00054967337876144873 -0.00010993467575228976 0.00016490201362843475 5.0430424899639385e-12 -1.0086084979927875e-12 1.5129127469891795e-12
189 1.50939409614961e-06 1.8005557100078107e-15 -2.799998682109992e-05 2.79999973642199e-05 2.8000003953669988e-05 0.00038976888144153703 -7.7953776288307836e-05 0.00011693066443246145 8.6831112343930766e-12 -1.7366222468786087e-12 2.6049333703179168e-12
190 1.5127302442766291e-06 1.8125211877950268e-15 -2.7999986870411553e-05 2.7999997374082355e-05 3.6000003938876529e-05 0.00038843915309636385 -7.7687830619272707e-05 0.00011653174592890907 8.7212564620584466e-12 -1.7442512924116909e-12 2.6163769386175348e-12
191 1.5482623993639554e-06 1.9432663152068445e-15 -2.7999987379963036e-05 3.5999997475992461e-05 -3.5999996213988884e-05 0.00037463761204263867 -7.4927522408527701e-05 0.00011239128361279155 9.127448131589498e-12 -1.8254896263179002e-12 2.7382344394768501e-12
192 1.4923248989677294e-06 1.7401583815328772e-15 -2.7999986564711704e-05 3.59999973129424e-05 -2.7999995969413507e-05 0.00039666570273020935 -7.9333140546041772e-05 0.00011899971081906328 8.4879386856008457e-12 -1.6975877371201708e-12 2.5463816056802461e-12
193 3.3860138330358345e-06 2.0326603063065743e-14 -2.7999997031367458e-05 3.5999999406273476e-05 -1.9999999109410228e-05 9.3467839707225443e-05 -1.8693567941445201e-05 2.8040351912167819e-05 2.8931062207415222e-11 -5.7862124414830403e-12 8.67931866222456e-12
194 2.0249033424658977e-06 4.3472189488011829e-15 -2.799999215802528e-05 3.5999998431604963e-05 -1.1999997647407548e-05 0.00023998130217930941 -4.7996260435861698e-05 7.1994390653792872e-05 1.4506387866463645e-11 -2.9012775732927329e-12 4.3519163599390931e-12
195 2.7630851619506731e-06 1.1045399648226362e-14 -2.7999995612946911e-05 3.5999999122589193e-05 -3.9999986838840604e-06 0.00013702154069163269 -2.7404308138326521e-05 4.1106462207489882e-05 2.2474878489460769e-11 -4.4949756978921542e-12 6.7424635468382269e-12
196 2.4374620470294924e-06 7.5824963300584699e-15 -2.7999994438623086e-05 3.5999998887724622e-05 4.0000016684130789e-06 0.00017252214219042676 -3.4504428438085235e-05 5.175664265712795e-05 1.9011066933875288e-11 -3.8022133867750595e-12 5.7033200801625861e-12
197 2.103186358090413e-06 4.871154346138172e-15 -2.7999992684379932e-05 3.5999998536875939e-05 1.2000002194686028e-05 0.00022458894043076604 -4.4917788086153353e-05 6.7376682129229796e-05 1.5372202790039278e-11 -3.0744405580078534e-12 4.6116608370117819e-12
198 1.2681205710378644e-06 1.0677762702546587e-15 -2.7999982451414951e-05 3.5999996490282988e-05 2.0000005264575486e-05 0.00050332286613017545 -0.00010066457322603532 0.00015099685983905245 5.938240432131098e-12 -1.187648086426217e-12 1.7814721296393312e-12
199 2.335567772001568e-06 6.6707711826548837e-15 -2.7999993975627477e-05 3.5999998795125585e-05 2.8000001807311753e-05 0.00018637745978125392 -3.7275491956250813e-05 5.5913237934376172e-05 1.7911475323640713e-11 -3.5822950647281416e-12 5.3734425970922138e-12
200 2.5638515376715527e-06 8.8242385948635573e-15 -2.7999994943772441e-05 3.5999998988754538e-05 3.6000001516868236e-05 0.00015731381382564944 -3.1462762765129919e-05 4.7194144147694773e-05 2.0364185338131776e-11 -4.0728370676263527e-12 6.1092556014395314e-12
201 1.684184314716683e-06 2.5013097576552869e-15 -1.9999989091983246e-05 -3.6000002181603335e-05 -3.5999996727594922e-05 0.00032746251223742499 -6.5492502447485028e-05 9.8238753671227712e-05 1.0677347473487515e-11 -2.1354694946975026e-12 3.2032042420462516e-12
202 1.3145704292225302e-06 1.1894609770309662e-15 -1.9999983432176866e-05 -3.6000003313564844e-05 -2.7999995029653013e-05 0.00047858948503664672 -9.5717897007329368e-05 0.000143576845510994 6.462136960529886e-12 -1.2924273921059772e-12 1.9386410881589654e-12
203 1.7589035100661431e-06 2.849211371951403e-15 -1.9999989895485758e-05 -3.6000002020902862e-05 -1.9999996968645666e-05 0.00030490270816424726 -6.0980541632849617e-05 9.1470812449274581e-05 1.1524914428795192e-11 -2.3049828857590354e-12 3.4574743286385513e-12
204 2.6136527341548363e-06 9.3485073645869767e-15 -1.9999995124438492e-05 -3.6000000975112299e-05 -1.1999998537331554e-05 0.00015185153609919622 -3.0370307219839187e-05 4.5555460829758976e-05 2.0894243610314075e-11 -4.1788487220628171e-12 6.2682730830942196e-12
205 1.4000273666894032e-06 1.4368392973793128e-15 -1.999998505096539e-05 -3.6000002989806964e-05 -3.9999955152896105e-06 0.00043680077300511071 -8.7360154601022499e-05 0.00013104023190153342 7.433517250287085e-12 -1.4867034500574124e-12 2.2300551750861232e-12
206 2.8989593707062352e-06 1.2756308344250633e-14 -1.9999995997033403e-05 -3.600000080059333e-05 4.0000012008899783e-06 0.00012530002153094544 -2.5060004306189134e-05 3.7590006459283572e-05 2.3900194839432729e-11 -4.7800389678865449e-12 7.1700584518298198e-12
207 1.4572934768796669e-06 1.6204651112680939e-15 -1.9999986016328732e-05 -3.6000002796734233e-05 1.2000004195101359e-05 0.00041132148553826603 -8.2264297107653459e-05 0.00012339644566148003 8.08744572773593e-12 -1.6174891455471827e-12 2.426233718320775e-12
208 1.7714715892032789e-06 2.9107251398322408e-15 -1.9999990022290791e-05 -3.6000001995541984e-05 2.0000002993312851e-05 0.00030131836513326132 -6.0263673026652254e-05 9.0395509539978276e-05 1.1667088712362082e-11 -2.3334177424724164e-12 3.500126613708626e-12
209 1.7362917114004394e-06 2.7407328072650821e-15 -1.9999989661482914e-05 -3.6000002067703438e-05 2.8000003101555121e-05 0.00031150000484775076 -6.2300000969550269e-05 9.3450001454325668e-05 1.1268829331422614e-11 -2.2537658662845218e-12 3.3806487994267774e-12
210 1.4859180688349792e-06 1.7178419878010395e-15 -1.9999986466682123e-05 -3.6000002706663447e-05 3.6000004059995342e-05 0.00039929518077966308 -7.985903615593237e-05 0.00011978855423389821 8.414683056376516e-12 -1.6829366112753064e-12 2.5244049169129642e-12
211 1.9659339848058923e-06 3.9783722165247242e-15 -1.9999991724535903e-05 -2.8000001655092777e-05 -3.5999997517360791e-05 0.00025257692583613699 -5.0515385167227411e-05 7.577307775084116e-05 1.3850637753802481e-11 -2.7701275507604967e-12 4.1551913261407432e-12
212 1.6233553929203828e-06 2.2399557894679573e-15 -1.999998836914766e-05 -2.8000002326170523e-05 -2.7999996510744305e-05 0.00034753009775611318 -6.9506019551222656e-05 0.00010425902932683385 9.9847668503746654e-12 -1.9969533700749329e-12 2.9954300551123998e-12
213 1.8320822964972502e-06 3.2198345535678708e-15 -1.999999060294531e-05 -2.8000001879410899e-05 -1.9999997180883564e-05 0.00028482225114649575 -5.6964450229298998e-05 8.5446675343948429e-05 1.2351021745627391e-11 -2.4702043491254809e-12 3.7053065236882225e-12
214 1.5377539281021601e-06 1.9039658633089773e-15 -1.9999987232192317e-05 -2.8000002553561532e-05 -1.1999996169657719e-05 0.00037865151504926 -7.573030300985177e-05 0.00011359545451477774 9.0073395840930685e-12 -1.8014679168186179e-12 2.7022018752279244e-12
215 2.0554941610387428e-06 4.5472346397849213e-15 -1.9999992370050947e-05 -2.800000152598981e-05 -3.9999977110152742e-06 0.00023379389791666221 -4.6758779583332583e-05 7.0138169374998685e-05 1.4845362423217875e-11 -2.9690724846435723e-12 4.4536087269653615e-12
216 1.1424444852468677e-06 7.8073552149762399e-16 -1.9999979379610755e-05 -2.8000004124077856e-05 4.0000061861167669e-06 0.00057781935079897454 -0.00011556387015979508 0.00017334580523969208 4.547699573150071e-12 -9.0953991463001242e-13 1.3643098719450241e-12
217 1.6576878755067417e-06 2.3851017186275888e-15 -1.9999988785180462e-05 -2.8000002242964e-05 1.2000003364445861e-05 0.00033600655061987025 -6.7201310123974172e-05 0.00010080196518596089 1.0375919466915204e-11 -2.0751838933830397e-12 3.1127758400745637e-12
218 2.4007478269109507e-06 7.244997760879421e-15 -1.9999994277998329e-05 -2.8000001144400343e-05 2.0000001716600496e-05 0.00017733802277147476 -3.5467604554294908e-05 5.3201406831442179e-05 1.8615790555062837e-11 -3.7231581110125675e-12 5.5847371665188553e-12
219 1.7056914224326723e-06 2.5983641690703494e-15 -1.9999989332322885e-05 -2.8000002133535485e-05 2.8000003200303134e-05 0.0003207422608661195 -6.4148452173223936e-05 9.6222678259835979e-05 1.0921697980490096e-11 -2.1843395960980187e-12 3.2765093941470253e-12
220 1.8363080538672211e-06 3.2421659417106771e-15 -1.9999990641607086e-05 -2.8000001871678566e-05 3.6000002807517952e-05 0.00028371907338074363 -5.6743814676148762e-05 8.5115722014223095e-05 1.2398595897480545e-11 -2.4797191794961089e-12 3.7195787692441642e-12
221 2.0044134675096115e-06 4.2165820781360984e-15 -1.9999992011206317e-05 -2.0000001597758819e-05 -3.5999997603361829e-05 0.00024425555849873616 -4.8851111699747281e-05 7.3276667549620786e-05 1.4278882156416497e-11 -2.8557764312832984e-12 4.2836646469249498e-12
222 2.3880936488965423e-06 7.1310368903766288e-15 -1.9999994221059904e-05 -2.0000001155787998e-05 -2.7999998266317981e-05 0.0001790428381396897 -3.5808567627937865e-05 5.3712851441907041e-05 1.8479312703554887e-11 -3.6958625407109784e-12 5.543793811066462e-12
223 2.3271575187746686e-06 6.5989671083624712e-15 -1.9999993934918334e-05 -2.0000001213016373e-05 -1.9999998180475551e-05 0.00018759183651320313 -3.751836730264065e-05 5.6277550953960863e-05 1.7820352774885093e-11 -3.5640705549770182e-12 5.3461058324655293e-12
224 3.2245826993032806e-06 1.7555741643011492e-14 -1.9999996737459397e-05 -2.0000000652508146e-05 -1.1999999021237824e-05 0.00010255229258951771 -2.0510458517903528e-05 3.0765687776855245e-05 2.7275787244738893e-11 -5.4551574489477795e-12 8.182736173421668e-12
225 2.9305750181797126e-06 1.3178232083325071e-14 -1.9999996079271805e-05 -2.0000000784145631e-05 -3.9999988237815263e-06 0.00012278327676250281 -2.4556655352500515e-05 3.6834983028750808e-05 2.4230329423042311e-11 -4.8460658846084648e-12 7.2690988269126947e-12
226 2.5862393685947581e-06 9.0574256456320402e-15 -1.9999995026186465e-05 -2.0000000994762783e-05 4.0000014921440648e-06 0.00015482359974330369 -3.096471994866075e-05 4.6447079922991074e-05 2.0602680723918911e-11 -4.1205361447837832e-12 6.1808042171756732e-12
227 1.0033444592339901e-06 5.2886982946266659e-16 -1.9999975124623117e-05 -2.0000004975075376e-05 1.2000007462613064e-05 0.00067311181877734627 -0.00013462236375546953 0.00020193354563320366 3.092880464691852e-12 -6.1857609293836794e-13 9.2786413940755726e-13
228 2.5639716851125029e-06 8.8254792197839327e-15 -1.9999994944220032e-05 -2.0000001011156014e-05 2.0000001516733955e-05 0.00015730029523094321 -3.1460059046188641e-05 4.7190088569283086e-05 2.0365466186031834e-11 -4.0730932372063664e-12 6.1096398558095464e-12
229 2.1552567994837676e-06 5.2419840358780149e-15 -1.9999993006534699e-05 -2.0000001398692998e-05 2.8000002098039603e-05 0.00021511522205225903 -4.3023044410451931e-05 6.4534566615677571e-05 1.5945151561093191e-11 -3.1890303122186362e-12 4.7835454683279611e-12
230 2.2715252419271434e-06 6.1369321805541437e-15 -1.9999993655226615e-05 -2.0000001268954653e-05 3.6000001903432016e-05 0.00019591824461274849 -3.9183648922549594e-05 5.8775473383824414e-05 1.7216158408616594e-11 -3.4432316817233202e-12 5.1648475225849799e-12
231 1.9147880723031372e-06 3.6758752388229503e-15 -1.9999991319959605e-05 -1.2000001736008097e-05 -3.5999997395987909e-05 0.00026426585425991131 -5.285317085198221e-05 7.9279756277973431e-05 1.3279428583171154e-11 -2.6558857166342316e-12 3.9838285749513454e-12
232 1.8224262876248222e-06 3.1691918916675662e-15 -1.9999990513737525e-05 -1.2000001897252512e-05 -2.7999997154121326e-05 0.00028736542601605136 -5.7473085203210566e-05 8.6209627804815554e-05 1.224225855913552e-11 -2.4484517118270994e-12 3.6726775677406531e-12
233 1.8994207557463245e-06 3.5880803552694091e-15 -1.9999991192828538e-05 -1.2000001761434284e-05 -1.9999997357848564e-05 0.00026792554232142981 -5.3585108464286058e-05 8.0377662696429111e-05 1.3107361528831292e-11 -2.6214723057662565e-12 3.932208458649384e-12
234 1.4661730275436644e-06 1.6502673202165386e-15 -1.9999986158231223e-05 -1.200000276835377e-05 -1.1999995847469361e-05 0.00040754163602228305 -8.1508327204456664e-05 0.00012226249080668494 8.1889429279024258e-12 -1.6377885855804846e-12 2.4566828783707275e-12
235 1.3780327429378687e-06 1.370178765588007e-15 -1.9999984655751781e-05 -1.2000003068849664e-05 -3.999995396725546e-06 0.00044711240546740422 -8.9422481093481064e-05 0.00013413372164022163 7.1828396656287625e-12 -1.4365679331257498e-12 2.1548518996886228e-12
236 2.1216646523456674e-06 5.000677475866168e-15 -1.9999992801126827e-05 -1.2000001439774635e-05 4.0000021596619492e-06 0.0002211603418834836 -4.4232068376696794e-05 6.6348102565044967e-05 1.5575794132190633e-11 -3.1151588264381249e-12 4.6727382396571896e-12
237 1.4744114555165626e-06 1.6782424875854178e-15 -1.9999986288105829e-05 -1.2000002742378843e-05 1.2000004113568237e-05 0.00040407447366960726 -8.0814894733921368e-05 0.00012122234210088184 8.2831247482090428e-12 -1.6566249496418097e-12 2.4849374244627165e-12
238 1.7244551409863754e-06 2.685062049816066e-15 -1.9999989535898591e-05 -1.2000002092820294e-05 2.0000003139230397e-05 0.00031503142960106068 -6.3006285920211985e-05 9.4509428880318262e-05 1.1134631025406682e-11 -2.2269262050813385e-12 3.3403893076220033e-12
239 2.1974530840274483e-06 5.5559388491549465e-15 -1.9999993252682433e-05 -1.2000001349463502e-05 2.8000002024195278e-05 0.00020784980442255368 -4.1569960884510768e-05 6.2354941326766148e-05 1.640774379894806e-11 -3.2815487597896118e-12 4.9223231396844157e-12
240 1.5604740085308877e-06 1.9896113075358602e-15 -1.9999987548686973e-05 -1.200000249026262e-05 3.6000003735394007e-05 0.00037004318328590763 -7.4008636657181442e-05 0.00011101295498577224 9.2669918185091397e-12 -1.8533983637018288e-12 2.7800975455527422e-12
241 2.7102510527862338e-06 1.0423826825596788e-14 -1.9999995448814378e-05 -4.0000009102371463e-06 -3.5999998634644283e-05 0.00014201403249020455 -2.8402806498040897e-05 4.2604209747061402e-05 2.1917655316027766e-11 -4.3835310632055562e-12 6.5752965948083315e-12
242 1.6337838775815938e-06 2.2834023332824624e-15 -1.9999988497794699e-05 -4.0000023004410637e-06 -2.7999996549338412e-05 0.00034397444820079406 -6.8794889640158991e-05 0.00010319233446023842 1.0103643607818961e-11 -2.0207287215637892e-12 3.031093082345684e-12
243 2.5336600416959661e-06 8.5161567980299072e-15 -1.9999994829418079e-05 -4.0000010341164018e-06 -1.9999998448825431e-05 0.00016076495860889518 -3.2152991721779038e-05 4.8229487582668693e-05 2.0042003574546915e-11 -4.0084007149093822e-12 6.0126010723640705e-12
244 2.3467762133919261e-06 6.7672723510932472e-15 -1.9999994029262859e-05 -4.0000011941474266e-06 -1.1999998208778858e-05 0.00018477653193645378 -3.6955306387290716e-05 5.5432959580936121e-05 1.8032827893115433e-11 -3.6065655786230882e-12 5.4098483679346282e-12
245 3.2054300505966676e-06 1.7244775088834639e-14 -1.9999996699754345e-05 -4.0000006600491229e-06 -3.9999990099262974e-06 0.00010371547642020699 -2.0743095284041339e-05 3.1114642926061985e-05 2.7078656009833657e-11 -5.415731201966732e-12 8.1235968029501013e-12
246 2.0698006428112399e-06 4.642844889431465e-15 -1.9999992466366769e-05 -4.0000015067266441e-06 4.0000022600899735e-06 0.0002309774078455649 -4.6195481569112828e-05 6.9293222353669198e-05 1.500361012124984e-11 -3.0007220242499715e-12 4.501083036374957e-12
247 1.9438396121111248e-06 3.8457398852955839e-15 -1.9999991553174836e-05 -4.0000016893650436e-06 1.2000002534047532e-05 0.00025753572749931847 -5.150714549986369e-05 7.7260718249795403e-05 1.360416131490969e-11 -2.7208322629819384e-12 4.0812483944729097e-12
248 1.4139711318112199e-06 1.4801994918663094e-15 -1.9999985294297705e-05 -4.0000029411404569e-06 2.0000004411710717e-05 0.00043041724432783281 -8.6083448865566795e-05 0.00012912517329835029 7.5926032595549717e-12 -1.5185206519109912e-12 2.2777809778664843e-12
249 2.1172008338437018e-06 4.9691807185317917e-15 -1.9999992773173476e-05 -4.0000014453653065e-06 2.8000002168047947e-05 0.00022198174956288689 -4.4396349912577381e-05 6.6594524868866001e-05 1.552663951708873e-11 -3.1053279034177452e-12 4.6579918551266189e-12
250 2.5161471505851364e-06 8.3407812394428185e-15 -1.9999994761337481e-05 -4.0000010477325005e-06 3.6000001571598734e-05 0.0001628172785295615 -3.2563455705912187e-05 4.8845183558868555e-05 1.9854822465522811e-11 -3.9709644931045647e-12 5.9564467396568402e-12
251 2.3703231334095082e-06 6.9730260482075987e-15 -1.9999994139689775e-05 3.9999988279379474e-06 -3.5999998241906893e-05 0.00018147705534241333 -3.6295411068482615e-05 5.4443116602724038e-05 1.8287444573551136e-11 -3.6574889147102292e-12 5.486233372065339e-12
252 1.6038617643138886e-06 2.1602271717343593e-15 -1.9999988123162929e-05 3.99999762463258e-06 -2.799999643694887e-05 0.00035430954566097796 -7.0861909132195752e-05 0.00010629286369829354 9.7624181318259409e-12 -1.9524836263651859e-12 2.9287254395477793e-12
253 2.5100066208972916e-06 8.2798643835526347e-15 -1.9999994737154693e-05 3.9999989474309453e-06 -1.9999998421146468e-05 0.00016354586459547724 -3.2709172919095555e-05 4.9063759378643301e-05 1.9789139241603893e-11 -3.9578278483207764e-12 5.9367417724811646e-12
254 2.9443003034977465e-06 1.336426053255305e-14 -1.9999996114198863e-05 3.9999992228397812e-06 -1.1999998834259661e-05 0.00012171365357703249 -2.4342730715406367e-05 3.6514096073109811e-05 2.4373480122845421e-11 -4.8746960245690889e-12 7.3120440368536241e-12
255 2.4261951871734124e-06 7.47783422248294e-15 -1.9999994390040541e-05 3.9999988780080919e-06 -3.9999983170121663e-06 0.00017397977236653146 -3.4795954473306288e-05 5.2193931709959591e-05 1.8889873494349274e-11 -3.7779746988698534e-12 5.6669620483047764e-12
256 2.4647557712457919e-06 7.8400764733858242e-15 -1.9999994553787107e-05 3.9999989107574273e-06 4.0000016338638526e-06 0.00016906332041234992 -3.3812664082469984e-05 5.0718996123705166e-05 1.9304260255566101e-11 -3.8608520511132195e-12 5.7912780766698253e-12
257 1.5564471486356738e-06 1.9742482279352643e-15 -1.9999987493400981e-05 3.9999974986801758e-06 1.2000003751979727e-05 0.00037154998115704937 -7.4309996231409931e-05 0.00011146499434711498 9.2209804684717271e-12 -1.8441960936943444e-12 2.7662941405415147e-12
258 1.9004604733710004e-06 3.59397578336915e-15 -1.9999991201514326e-05 3.999998240302867e-06 2.0000002639545739e-05 0.00026767571348802603 -5.3535142697605192e-05 8.0302714046407835e-05 1.3119009572631081e-11 -2.6238019145262162e-12 3.9357028717893226e-12
259 2.942877074054905e-06 1.3344889665704679e-14 -1.9999996110598516e-05 3.9999992221197143e-06 2.8000001166820407e-05 0.00012182393220136421 -2.4364786440272814e-05 3.6547179660409313e-05 2.4358641004674774e-11 -4.8717282009349565e-12 7.3075923014024295e-12
260 1.7984878291299351e-06 3.045938510527575e-15 -1.9999990287277398e-05 3.9999980574554791e-06 3.600000291381667e-05 0.00029380708342368386 -5.8761416684736617e-05 8.8142125027105162e-05 1.1972298032891138e-11 -2.3944596065782302e-12 3.5916894098673403e-12
261 2.3778674598506688e-06 7.0398199801473333e-15 -1.9999994174438326e-05 1.1999998834887648e-05 -3.5999998252331375e-05 0.00018043784419555158 -3.6087568839110346e-05 5.4131353258665315e-05 1.8368930638834918e-11 -3.673786127766983e-12 5.5106791916504785e-12
262 1.711560752703093e-06 2.6252796979642119e-15 -1.9999989396603172e-05 1.1999997879320658e-05 -2.7999996818980943e-05 0.00031894086288005927 -6.3788172576011715e-05 9.5682258864017458e-05 1.0988329404222543e-11 -2.1976658808445112e-12 3.2964988212667672e-12
263 3.3888413992762594e-06 2.037756814628038e-14 -1.9999997036160423e-05 1.1999999407232071e-05 -1.9999999110848134e-05 9.3319435331177958e-05 -1.8663887066235588e-05 2.7995830599353479e-05 2.8959959496376893e-11 -5.7919918992753782e-12 8.6879878489130649e-12
264 2.1435321909616335e-06 5.1568993168083555e-15 -1.999999293582097e-05 1.1999998587164188e-05 -1.1999997880746272e-05 0.00021719814716031832 -4.3439629432063547e-05 6.515944414809553e-05 1.5816345857974346e-11 -3.1632691715948711e-12 4.7449037573923038e-12
265 1.8857323059761803e-06 3.5110640043844723e-15 -1.9999991077316717e-05 1.1999998215463364e-05 -3.999997323195017e-06 0.00027124519672280768 -5.4249039344561614e-05 8.137355901684236e-05 1.2953922751628973e-11 -2.5907845503257926e-12 3.8861768254886906e-12
266 1.3853088668276235e-06 1.3919975287265466e-15 -1.9999984788064703e-05 1.1999996957612937e-05 4.0000045635805796e-06 0.00044366797899284298 -8.8733595798568311e-05 0.00013310039369785295 7.2657276261746524e-12 -1.4531455252349346e-12 2.179718287852394e-12
267 1.8609559633181084e-06 3.3744804104774946e-15 -1.9999990862626584e-05 1.1999998172525297e-05 1.2000002741212034e-05 0.00027740100226053153 -5.5480200452106368e-05 8.3220300678159419e-05 1.2675792585677e-11 -2.5351585171353992e-12 3.8027377757031006e-12
268 1.6380139864967574e-06 2.3011844970796216e-15 -1.9999988549404566e-05 1.1999997709880897e-05 2.0000003435178681e-05 0.00034254607480341866 -6.8509214960683901e-05 0.00010276382244102557 1.0151848162401403e-11 -2.0303696324802788e-12 3.0455544487204217e-12
269 1.9421532402987202e-06 3.8357394882698004e-15 -1.9999991539885855e-05 1.1999998307977163e-05 2.8000002538034266e-05 0.00025791979944884762 -5.1583959889769575e-05 7.737593983465461e-05 1.3585331343510193e-11 -2.7170662687020376e-12 4.0755994030530507e-12
270 1.3700471247892596e-06 1.3464962218156454e-15 -1.9999984508715108e-05 1.1999996901743006e-05 3.600000464738541e-05 0.00045093089725676926 -9.0186179451353876e-05 0.00013527926917703066 7.0919196383500437e-12 -1.4183839276700085e-12 2.127575891505014e-12
271 1.2837925589176755e-06 1.1078556697067384e-15 -1.9999982790852849e-05 1.9999996558170613e-05 -3.5999994837255955e-05 0.00049481344580642084 -9.8962689161284293e-05 0.0001484440337419264 6.1145712983008242e-12 -1.2229142596601633e-12 1.834371389490245e-12
272 1.9191878518754359e-06 3.7012726680077324e-15 -1.9999991355871345e-05 1.9999998271174284e-05 -2.7999997406761428e-05 0.0002632309134298639 -5.26461826859729e-05 7.8969274028959445e-05 1.3328655344460801e-11 -2.6657310688921581e-12 3.9985966033382352e-12
273 1.4763857321819669e-06 1.6849931545746121e-15 -1.9999986318977568e-05 1.9999997263795526e-05 -1.9999995895693328e-05 0.00040324923467664986 -8.0649846935329912e-05 0.00012097477040299487 8.3056961788641995e-12 -1.6611392357728405e-12 2.4917088536592607e-12
274 2.1988623261056205e-06 5.5666348933499225e-15 -1.9999993260684187e-05 1.9999998652136757e-05 -1.1999997978205241e-05 0.00020761323145337423 -4.1522646290674894e-05 6.2283969436012436e-05 1.6423167007953069e-11 -3.2846334015906128e-12 4.9269501023859166e-12
275 1.9270980611117569e-06 3.7472275439417111e-15 -1.9999991419899271e-05 1.9999998283979792e-05 -3.9999974259697919e-06 0.00026138442513915628 -5.2276885027831503e-05 7.8415327541747252e-05 1.3417116441453533e-11 -2.6834232882907024e-12 4.0251349324360522e-12
276 1.5857063308275241e-06 2.08769428607726e-15 -1.9999987887412586e-05 1.9999997577482537e-05 4.0000036337762352e-06 0.00036078308590849206 -7.2156617181698819e-05 0.00010823492577254765 9.5551896366072003e-12 -1.9110379273214334e-12 2.866556890982159e-12
277 2.0305759429939164e-06 4.3838565258612942e-15 -1.9999992197981449e-05 1.9999998439596316e-05 1.2000002340605539e-05 0.00023881662529792722 -4.7763325059585236e-05 7.1644987589378217e-05 1.4569307495230569e-11 -2.9138614990461189e-12 4.3707922485691717e-12
278 1.6357424943059064e-06 2.2916243638233828e-15 -1.9999988521731823e-05 1.9999997704346337e-05 2.0000003443480518e-05 0.00034331209381696209 -6.8662418763392372e-05 0.00010299362814508886 1.0125964319165813e-11 -2.0251928638331633e-12 3.0377892957497402e-12
279 2.063598636780331e-06 4.6012339889048316e-15 -1.9999992424830526e-05 1.9999998484966084e-05 2.8000002272550844e-05 0.00023219245936995255 -4.6438491873990768e-05 6.9657737810986027e-05 1.4935030118364517e-11 -2.9870060236728977e-12 4.4805090355093476e-12
280 2.3447609328804786e-06 6.7498532501407383e-15 -1.9999994019670814e-05 1.9999998803934104e-05 3.600000179409867e-05 0.00018506291796484471 -3.7012583592969066e-05 5.5518875389453402e-05 1.8011016021536005e-11 -3.6022032043071993e-12 5.4033048064608018e-12
281 1.8734553523293141e-06 3.442933742512648e-15 -1.9999990971852628e-05 2.7999998194370518e-05 -3.5999997291555801e-05 0.00027427146029048095 -5.4854292058096098e-05 8.2281438087144219e-05 1.2816170741874633e-11 -2.5632341483749283e-12 3.8448512225623904e-12
282 1.8056035454630799e-06 3.0822355048006448e-15 -1.9999990355394524e-05 2.7999998071078923e-05 -2.7999997106618295e-05 0.00029187166288113342 -5.8374332576226826e-05 8.7561498864339904e-05 1.2052591512888399e-11 -2.4105183025776765e-12 3.61577745386652e-12
283 1.8419561756350634e-06 3.2721748451166986e-15 -1.9999990692926647e-05 2.7999998138585294e-05 -1.9999997207877979e-05 0.00028225379056497199 -5.6450758112994321e-05 8.4676137169491288e-05 1.2462160398569386e-11 -2.4924320797138787e-12 3.7386481195708208e-12
284 1.5659017634618765e-06 2.0104448396075724e-15 -1.9999987622664713e-05 2.7999997524532889e-05 -1.1999996286799404e-05 0.00036802492255680108 -7.3604984511360262e-05 0.00011040747676704058 9.3290029628563363e-12 -1.8658005925712669e-12 2.7987008888568984e-12
285 1.831768538391642e-06 3.2181805729762665e-15 -1.9999990600065578e-05 2.7999998120013101e-05 -3.9999971800196912e-06 0.00028490439757805343 -5.6980879515610684e-05 8.5471319273415982e-05 1.234748883307363e-11 -2.4694977666147262e-12 3.7042466499220913e-12
286 2.5635915658932324e-06 8.8215545622358999e-15 -1.9999994942803668e-05 2.7999998988560705e-05 4.0000015171588993e-06 0.00015734307075901391 -3.1468614151802789e-05 4.7202921227704065e-05 2.0361413839665226e-11 -4.0722827679330435e-12 6.1084241518995681e-12
287 3.0541668884387991e-06 1.4916842893826572e-14 -1.9999996377926474e-05 2.7999999275585276e-05 1.2000001086622061e-05 0.00011362284532045926 -2.2724569064091827e-05 3.4086853596137714e-05 2.5515767483331951e-11 -5.1031534966663912e-12 7.6547302449995843e-12
288 2.8598067702730236e-06 1.2246407096731675e-14 -1.9999995891613522e-05 2.7999999178322719e-05 2.0000001232515953e-05 0.00012852258682114287 -2.570451736422843e-05 3.8556776046342681e-05 2.3490584539960862e-11 -4.6981169079921779e-12 7.0471753619882628e-12
289 1.2228857796142449e-06 9.5753863662037219e-16 -1.9999981420084133e-05 2.7999996284016871e-05 2.8000005573974736e-05 0.00052884354907626675 -0.00010576870981525329 0.0001586530647228794 5.4323225739705518e-12 -1.0864645147941113e-12 1.6296967721911721e-12
290 2.5563900107555989e-06 8.747419567894317e-15 -1.9999994915859079e-05 2.799999898317179e-05 3.6000001525242356e-05 0.00015815667067144547 -3.1631334134289182e-05 4.7447001201433669e-05 2.0284620964979585e-11 -4.0569241929959144e-12 6.0853862894938741e-12
291 1.3584934338857322e-06 1.3127174345354696e-15 -1.9999984292547709e-05 3.5999996858509522e-05 -3.599999528776436e-05 0.00045652698407271531 -9.1305396814543295e-05 0.00013695809522181433 6.9604777195145862e-12 -1.3920955439029143e-12 2.0881433158543793e-12
292 2.2555256023484577e-06 6.0081657557282826e-15 -1.9999993571300381e-05 3.5999998714260108e-05 -2.799999807139015e-05 0.00019841093841228675 -3.968218768245749e-05 5.9523281523685934e-05 1.7041926668584722e-11 -3.4083853337169411e-12 5.1125780005754173e-12
293 1.2589280621598854e-06 1.0447235033321685e-15 -1.9999982248130156e-05 3.5999996449625969e-05 -1.9999994674439056e-05 0.00050839313761772862 -0.00010167862752354541 0.00015251794128531832 5.8350440908114989e-12 -1.1670088181623029e-12 1.7505132272434524e-12
294 1.6428249561697959e-06 2.3215203615466926e-15 -1.9999988607703777e-05 3.5999997721540746e-05 -1.1999996582311152e-05 0.00034093122584566806 -6.8186245169133422e-05 0.00010227936775369985 1.0206660753246132e-11 -2.0413321506492291e-12 3.0619982259738475e-12
295 1.8891687775078631e-06 3.5302942091248776e-15 -1.9999991106519933e-05 3.5999998221304016e-05 -3.9999973319559686e-06 0.00027040643696885991 -5.4081287393771954e-05 8.1121931090658239e-05 1.2992458388292486e-11 -2.5984916776584986e-12 3.8977375164877397e-12
296 2.5890220259766077e-06 9.0866930524694577e-15 -1.9999995036291856e-05 3.5999999007258393e-05 4.0000014891124492e-06 0.00015451808343006361 -3.0903616686012808e-05 4.6355425029019215e-05 2.0632299913060478e-11 -4.126459982612093e-12 6.1896899739181395e-12
297 1.6184139569137335e-06 2.219562953727339e-15 -1.9999988307478718e-05 3.5999997661495679e-05 1.2000003507756397e-05 0.00034923210225049143 -6.9846420450098072e-05 0.00010476963067514725 9.928419994994986e-12 -1.9856839989990004e-12 2.9785259984984995e-12
298 2.0413326466638505e-06 4.4538949136505313e-15 -1.9999992272943106e-05 3.5999998454588551e-05 2.0000002318116983e-05 0.00023662990161560601 -4.7325980323121154e-05 7.0988970484681975e-05 1.4688541732723289e-11 -2.9377083465446592e-12 4.4065625198169844e-12
299 1.5137764697186089e-06 1.8162844845268629e-15 -1.9999986885822716e-05 3.5999997377164445e-05 2.8000003934253218e-05 0.00038802336358178966 -7.7604672716357755e-05 0.00011640700907453654 8.733218768716755e-12 -1.746643753743354e-12 2.6199656306150305e-12
300 1.7954482787233905e-06 3.0305211494675757e-15 -1.999999025797036e-05 3.5999998051594094e-05 3.6000002922608791e-05 0.00029463921123568717 -5.892784224713716e-05 8.8391763370705855e-05 1.1937987712618609e-11 -2.3875975425237262e-12 3.5813963137855877e-12
301 1.0070906403638252e-06 5.3481588930889871e-16 -1.199997525269278e-05 -3.6000004949461415e-05 -3.5999992575807772e-05 0.00067038483770788353 -0.00013407696754157646 0.00020111545131236492 3.1303132377982395e-12 -6.2606264755964975e-13 9.3909397133947322e-13
302 2.0635903976861118e-06 4.601178876663055e-15 -1.1999992424775193e-05 -3.6000001515044933e-05 -2.7999997727432561e-05 0.0002321940795209676 -4.6438815904193462e-05 6.9658223856290224e-05 1.493493899044573e-11 -2.9869877980891473e-12 4.4804816971337187e-12
303 2.0584918472338612e-06 4.5671584204064781e-15 -1.1999992390379571e-05 -3.600000152192406e-05 -1.9999997717113879e-05 0.00023319974248644186 -4.6639948497288305e-05 6.9959922745932614e-05 1.4878535440746128e-11 -2.9757070881492273e-12 4.4635606322238373e-12
304 2.1867440692171744e-06 5.4751055285025014e-15 -1.1999993191421426e-05 -3.60000013617157e-05 -1.1999997957426457e-05 0.00020966018303647543 -4.1932036607295128e-05 6.2898054910942567e-05 1.6290485845829614e-11 -3.2580971691659226e-12 4.8871457537488849e-12
305 1.3746564077134079e-06 1.3601321449053995e-15 -1.1999984593818595e-05 -3.6000003081236317e-05 -3.9999953781455675e-06 0.0004487219746287409 -8.9744394925748286e-05 0.00013461659238862261 7.1443918264229941e-12 -1.4288783652845974e-12 2.1433175479268935e-12
306 2.2561856751947201e-06 6.013442114951727e-15 -1.1999993574794767e-05 -3.6000001285041187e-05 4.0000019275615622e-06 0.00019830720555374953 -3.966144111074978e-05 5.9492161666124734e-05 1.7049118859183083e-11 -3.4098237718366197e-12 5.1147356577549273e-12
307 1.7193480167903564e-06 2.6612764962576872e-15 -1.1999989481040831e-05 -3.6000002103791853e-05 1.2000003155687739e-05 0.00031657200304623058 -6.3314400609245955e-05 9.497160091386894e-05 1.1076698408969319e-11 -2.2153396817938666e-12 3.3230095226907994e-12
308 2.9110100608091916e-06 1.2916050713521617e-14 -1.1999996028677269e-05 -3.6000000794264584e-05 2.0000001191396833e-05 0.00012433191348233425 -2.4866382696466834e-05 3.7299574044700334e-05 2.402609474607853e-11 -4.8052189492157062e-12 7.207828423823558e-12
309 1.3494721458272867e-06 1.2867387998730907e-15 -1.1999984120887194e-05 -3.6000003175822501e-05 2.800000476373379e-05 0.00046095582543394643 -9.2191165086789005e-05 0.00013828674763018359 6.857938344509516e-12 -1.3715876689019073e-12 2.057381503352859e-12
310 1.8943781737407656e-06 3.5595792481468548e-15 -1.1999991150527857e-05 -3.6000001769894406e-05 3.6000002654841524e-05 0.00026914182367988729 -5.3828364735977417e-05 8.0742547103966101e-05 1.3050855968170033e-11 -2.6101711936340078e-12 3.9152567904510098e-12
311 9.7387225863275845e-07 4.8362039439215732e-16 -1.1999974089030006e-05 -2.8000005182194036e-05 -3.5999992226708937e-05 0.0006948274946249949 -0.00013896549892499893 0.00020844824838749863 2.8026971784218807e-12 -5.6053943568437665e-13 8.4080915352656241e-13
312 1.673182736746106e-06 2.4526114275496079e-15 -1.1999988966059602e-05 -2.8000002206788103e-05 -2.7999996689817898e-05 0.00033097402223785771 -6.619480444757146e-05 9.9292206671357068e-05 1.0552242269063903e-11 -2.1104484538127821e-12 3.1656726807191749e-12
313 1.685163406884392e-06 2.5056746661191809e-15 -1.1999989103090832e-05 -2.8000002179381875e-05 -1.9999996730927316e-05 0.0003271524510951417 -6.5430490219028567e-05 9.8145735328542512e-05 1.0688477691517008e-11 -2.1376955383033979e-12 3.2065433074551031e-12
314 1.0876114413131649e-06 6.7362768093419244e-16 -1.1999977820356885e-05 -2.8000004435928651e-05 -1.1999993346107072e-05 0.00061384093069454459 -0.00012276818613890929 0.0001841522792083635 3.9602053110642797e-12 -7.9204106221285254e-13 1.1880615933192825e-12
315 2.0474567629923295e-06 4.494101122867832e-15 -1.199999231515571e-05 -2.8000001536968858e-05 -3.9999976945466981e-06 0.00023539754620797488 -4.7079509241594966e-05 7.0619263862392259e-05 1.4756380067548131e-11 -2.9512760135096269e-12 4.426914020264442e-12
316 1.1859735660483664e-06 8.7342104095121273e-16 -1.1999980518209897e-05 -2.8000003896358032e-05 4.0000058445370259e-06 0.00055074236043449476 -0.00011014847208689905 0.00016522270813034809 5.0236031622208471e-12 -1.0047206324441684e-12 1.5070809486662575e-12
317 3.2478648095325834e-06 1.7938761397842768e-14 -1.199999678244085e-05 -2.8000000643511821e-05 1.2000000965267763e-05 0.0001011639649719756 -2.0232792994395198e-05 3.0349189491592726e-05 2.7515202003849493e-11 -5.5030404007698969e-12 8.2545606011548474e-12
318 2.1369444366456615e-06 5.1094989303105099e-15 -1.1999992895631715e-05 -2.8000001420873648e-05 2.0000002131310426e-05 0.00021838109523311617 -4.3676219046623098e-05 6.5514328569935077e-05 1.5743921354308728e-11 -3.1487842708617482e-12 4.7231764062926134e-12
319 3.9755829581010255e-06 3.2900392804925423e-14 -1.1999997827435277e-05 -2.8000000434512987e-05 2.8000000651769447e-05 6.8707030038535561e-05 -1.3741406007707099e-05 2.0612109011560594e-05 3.4895845776651163e-11 -6.9791691553302323e-12 1.0468753732995348e-11
320 1.4862520545564953e-06 1.719000592048909e-15 -1.1999986471816925e-05 -2.8000002705636614e-05 3.6000004058454942e-05 0.00039915755130099468 -7.9831510260198855e-05 0.00011974726539029873 8.4185017868756272e-12 -1.683700357375127e-12 2.5255505360626842e-12
321 1.6484925130146044e-06 2.3456302804418534e-15 -1.1999988675845611e-05 -2.0000002264830814e-05 -3.5999996602753758e-05 0.00033904195396250539 -6.7808390792500992e-05 0.00010171258618875191 1.0271216983495471e-11 -2.0542433966990957e-12 3.0813650950486352e-12
322 2.9486327035754951e-06 1.3423342034429333e-14 -1.1999996125128333e-05 -2.0000000774974348e-05 -2.7999998837538481e-05 0.0001213788561095135 -2.4275771221902672e-05 3.6413656832854056e-05 2.4418644600211523e-11 -4.8837289200423059e-12 7.3255933800634557e-12
323 2.3462368620343152e-06 6.7626075278506657e-15 -1.1999994026697945e-05 -2.0000001194660414e-05 -1.9999998208009357e-05 0.00018485311521822048 -3.6970623043644163e-05 5.5455934565466251e-05 1.8026990677310442e-11 -3.6053981354620868e-12 5.4080972031931288e-12
324 2.2251111330776883e-06 5.7683784053435027e-15 -1.1999993407233805e-05 -2.0000001318553236e-05 -1.1999998022170157e-05 0.0002032761458051767 -4.0655229161035474e-05 6.0982843741553099e-05 1.6710136505567896e-11 -3.3420273011135758e-12 5.013040951670366e-12
325 1.6921932219902463e-06 2.5371636219304398e-15 -1.1999989182372872e-05 -2.0000002163525427e-05 -3.9999967547118563e-06 0.0003249378725221437 -6.498757450442875e-05 9.7481361756643207e-05 1.0768374280967298e-11 -2.1536748561934595e-12 3.2305122842901865e-12
326 3.000797836252453e-06 1.4148449085349351e-14 -1.1999996253235954e-05 -2.0000000749352804e-05 4.0000011240292083e-06 0.0001174513296004634 -2.3490265920092682e-05 3.5235398880138931e-05 2.4961671311778718e-11 -4.9923342623557434e-12 7.488501393533618e-12
327 1.0616626387090406e-06 6.2655359330887306e-16 -1.1999977030489758e-05 -2.0000004593902032e-05 1.200000689085306e-05 0.0006316090730925743 -0.00012632181461851534 0.0001894827219277727 3.6879360236149174e-12 -7.3758720472297874e-13 1.1063808070844702e-12
328 1.5078209314182071e-06 1.7949316926720311e-15 -1.1999986797757216e-05 -2.0000002640448544e-05 2.0000003960672808e-05 0.00039039797201091149 -7.8079594402182025e-05 0.00011711939160327353 8.6651235998472787e-12 -1.7330247199694596e-12 2.599537079954181e-12
329 2.4632992278562911e-06 7.8261854444161146e-15 -1.1999994547730066e-05 -2.0000001090453985e-05 2.800000163568095e-05 0.00016924536181031353 -3.384907236206274e-05 5.0773608543094039e-05 1.9288627874228518e-11 -3.8577255748457024e-12 5.7865883622685532e-12
330 1.9477208837614386e-06 3.8688223213992286e-15 -1.1999991583646079e-05 -2.0000001683270746e-05 3.6000002524906148e-05 0.00025665480413590027 -5.1330960827179956e-05 7.6996441240770273e-05 1.3647490077363097e-11 -2.7294980154726219e-12 4.0942470232089235e-12
331 3.4156062950069745e-06 2.0864214463729076e-14 -1.1999997080966523e-05 -1.2000000583806721e-05 -3.5999999124289974e-05 9.1931716436931317e-05 -1.838634328738629e-05 2.7579514931079352e-05 2.9233336125594321e-11 -5.8466672251188634e-12 8.7700008376782963e-12
332 1.7676952736563742e-06 2.8921500721401763e-15 -1.199998998442985e-05 -1.2000002003114029e-05 -2.7999996995328916e-05 0.00030238924540857071 -6.047784908171419e-05 9.0716773622571471e-05 1.1624382225908419e-11 -2.3248764451816823e-12 3.4873146677725206e-12
333 1.9901336036037895e-06 4.1271031258039461e-15 -1.1999991906521898e-05 -1.2000001618695621e-05 -1.9999997571956548e-05 0.00024729803186410897 -4.9459606372821836e-05 7.4189409559232737e-05 1.4120110519516087e-11 -2.8240221039032152e-12 4.236033155854823e-12
334 1.8435243134679379e-06 3.2805391985866129e-15 -1.1999990707103351e-05 -1.2000001858579324e-05 -1.1999997212130996e-05 0.00028184883089299364 -5.6369766178598798e-05 8.455464926789813e-05 1.2479803724586452e-11 -2.4959607449172892e-12 3.7439411173759362e-12
335 3.0293204169203651e-06 1.4555738946800455e-14 -1.1999996320651155e-05 -1.200000073586976e-05 -3.999998896195347e-06 0.00011538212096275426 -2.3076424192550857e-05 3.4614636288826198e-05 2.525798338967712e-11 -5.0515966779354238e-12 7.5773950169031369e-12
336 2.1289398088703319e-06 5.0522958164431647e-15 -1.1999992846349795e-05 -1.200000143073006e-05 4.000002146095058e-06 0.00021983083095728843 -4.396616619145777e-05 6.5949249287186517e-05 1.5655869633717818e-11 -3.1311739267435611e-12 4.6967608901153451e-12
337 1.834665988192079e-06 3.2334760760077167e-15 -1.1999990626610857e-05 -1.2000001874677832e-05 1.2000002812016753e-05 0.00028414704783326139 -5.6829409566652173e-05 8.5244114349978378e-05 1.238011103093666e-11 -2.476022206187333e-12 3.7140333092809975e-12
338 2.0608522020483839e-06 4.5828871395349471e-15 -1.1999992406330973e-05 -1.2000001518733795e-05 2.0000002278100683e-05 0.00023273341041111885 -4.6546682082223748e-05 6.9820023123335731e-05 1.4904650080937666e-11 -2.9809300161875331e-12 4.4713950242812981e-12
339 2.549368556614414e-06 8.6755396168409409e-15 -1.199999488938478e-05 -1.2000001022123054e-05 2.8000001533184498e-05 0.00015895580610377389 -3.1791161220754826e-05 4.7686741831132083e-05 2.020971357332487e-11 -4.0419427146649728e-12 6.0629140719974612e-12
340 1.6060895203143967e-06 2.1692413150877208e-15 -1.1999988151643945e-05 -1.200000236967121e-05 3.600000355450674e-05 0.00035352589479988728 -7.0705178959977393e-05 0.00010605776843996622 9.7878368939314842e-12 -1.9575673787862983e-12 2.936351068179443e-12
341 1.5890835507480555e-06 2.1010617606536682e-15 -1.1999987931762285e-05 -4.0000024136475482e-06 -3.5999996379528728e-05 0.0003595670602607791 -7.1913412052155675e-05 0.00010787011807823345 9.5937472586816297e-12 -1.9187494517363282e-12 2.8781241776044931e-12
342 3.1941949282148157e-06 1.7064079650439797e-14 -1.199999667733519e-05 -4.000000664532974e-06 -2.7999999003200551e-05 0.00010440685425617497 -2.0881370851235024e-05 3.1322056276852586e-05 2.696294018508301e-11 -5.3925880370166012e-12 8.0888820555248998e-12
343 3.2806350627114623e-06 1.8487253185936829e-14 -1.1999996844212945e-05 -4.0000006311574135e-06 -1.999999905326387e-05 9.9256217973885523e-05 -1.9851243594777057e-05 2.9776865392165701e-05 2.7851784179557606e-11 -5.5703568359115251e-12 8.3555352538672813e-12
344 2.0236876824110263e-06 4.339394029608668e-15 -1.1999992149423951e-05 -4.0000015701151984e-06 -1.1999997644827183e-05 0.00024023193898703506 -4.8046387797406919e-05 7.206958169611046e-05 1.4492900276053734e-11 -2.8985800552107483e-12 4.3478700828161207e-12
345 3.0334650386596983e-06 1.4615564848651285e-14 -1.1999996330297824e-05 -4.0000007339404393e-06 -3.9999988990893571e-06 0.00011508589523611145 -2.301717904722232e-05 3.4525768570833555e-05 2.5301005873790842e-11 -5.0602011747581681e-12 7.5903017621372481e-12
346 2.8060311440826054e-06 1.1568474221018486e-14 -1.1999995740015428e-05 -4.0000008519969328e-06 4.0000012779953595e-06 0.00013314964868386993 -2.6629929736773933e-05 3.9944894605160922e-05 2.2926553375815277e-11 -4.5853106751630575e-12 6.8779660127445851e-12
347 1.4222425301403038e-06 1.5063282002660746e-15 -1.1999985436068353e-05 -4.0000029127863314e-06 1.2000004369179477e-05 0.0004266859424967755 -8.5337188499354715e-05 0.00012800578274903187 7.6870227517276896e-12 -1.5374045503455431e-12 2.3061068255183175e-12
348 2.1497797120010446e-06 5.202121632829767e-15 -1.1999992973629973e-05 -4.000001405274009e-06 2.0000002107911036e-05 0.00021608469575603665 -4.3216939151207256e-05 6.4825408726810986e-05 1.5884995379521524e-11 -3.1769990759043057e-12 4.7654986138564549e-12
349 1.721075231370374e-06 2.6693049140536699e-15 -1.199998949963931e-05 -4.0000021000721446e-06 2.8000003150108188e-05 0.0003160498388632369 -6.3209967772647296e-05 9.4814951658970883e-05 1.1096293057858965e-11 -2.2192586115717943e-12 3.3288879173576916e-12
350 1.3622949996253263e-06 1.3237687052777832e-15 -1.1999984364126928e-05 -4.0000031271746284e-06 3.6000004690761981e-05 0.0004546762981191864 -9.0935259623837155e-05 0.00013640288943575594 7.0037126110993503e-12 -1.4007425222198716e-12 2.101113783329804e-12
351 2.2334900745145154e-06 5.8337888061941294e-15 -1.1999993453036745e-05 3.9999986906073437e-06 -3.5999998035911218e-05 0.00020191894353653329 -4.0383788707306696e-05 6.0575683060959887e-05 1.6801618926358753e-11 -3.3603237852717504e-12 5.0404856779076275e-12
352 1.9920778893092438e-06 4.1392110208094686e-15 -1.1999991920891556e-05 3.9999983841782978e-06 -2.7999997576267415e-05 0.00024688065683869844 -4.9376131367739667e-05 7.4064197051609392e-05 1.4141738701441911e-11 -2.8283477402883831e-12 4.2425216104325753e-12
353 2.2193954116686638e-06 5.7240401829055654e-15 -1.1999993375720696e-05 3.9999986751441305e-06 -1.9999998012716207e-05 0.00020420945718918875 -4.0841891437837857e-05 6.1262837156756674e-05 1.6647697763531088e-11 -3.3295395527062148e-12 4.9943093290593242e-12
354 1.9998768495792311e-06 4.188016475516541e-15 -1.1999991978162078e-05 3.9999983956324143e-06 -1.1999997593448631e-05 0.00024521639553154901 -4.9043279106309839e-05 7.3564918659464813e-05 1.4228460833632332e-11 -2.8456921667264654e-12 4.2685382500896971e-12
355 2.0002391120931519e-06 4.1902927700032919e-15 -1.1999991980808019e-05 3.9999983961615948e-06 -3.9999975942424126e-06 0.00024513947454508141 -4.9027894909016279e-05 7.354184236352467e-05 1.423248779000091e-11 -2.8464975580001817e-12 4.2697463370002678e-12
356 1.44355451312024e-06 1.575063940314666e-15 -1.199998579276395e-05 3.9999971585527804e-06 4.0000042621708019e-06 0.00041725869148469242 -8.3451738296938502e-05 0.00012517760744540813 7.9304415276166735e-12 -1.5860883055233343e-12 2.3791324582849954e-12
357 1.7296642030344639e-06 2.7094679271036745e-15 -1.199998959143237e-05 3.9999979182864658e-06 1.2000003122570276e-05 0.00031347061712329977 -6.2694123424659903e-05 9.4041185136989902e-05 1.119370138370191e-11 -2.2387402767403827e-12 3.3581104151105735e-12
358 1.7903889299708281e-06 3.0049743834665408e-15 -1.1999990208907373e-05 3.9999980417814724e-06 2.0000002937327829e-05 0.00029603150674908918 -5.9206301349817803e-05 8.8809452024726768e-05 1.1880861971232492e-11 -2.3761723942464993e-12 3.564258591369746e-12
359 1.5394116200818478e-06 1.9101299038564062e-15 -1.1999987255663413e-05 3.9999974511326758e-06 2.800000382330103e-05 0.00037801459035446147 -7.5602918070892473e-05 0.00011340437710633885 9.0262879262063915e-12 -1.8052575852412758e-12 2.7078863778619112e-12
360 1.5701724305396938e-06 2.0269389360199845e-15 -1.1999987680438449e-05 3.9999975360876876e-06 3.6000003695868475e-05 0.00036644712591644665 -7.3289425183289166e-05 0.00010993413777493406 9.3777885863713082e-12 -1.8755577172742644e-12 2.8133365759113909e-12
361 3.1300082638345359e-06 1.6055915535727018e-14 -1.1999996544823427e-05 1.1999999308964691e-05 -3.5999998963447125e-05 0.00010848964532354128 -2.1697929064708307e-05 3.254689359706235e-05 2.6300738269707876e-11 -5.2601476539415732e-12 7.890221480912363e-12
362 1.6911710245830779e-06 2.5325685513644433e-15 -1.1999989170895572e-05 1.1999997834179119e-05 -2.7999996751268692e-05 0.00032525862669346192 -6.5051725338692508e-05 9.7577588008038491e-05 1.0756758544558124e-11 -2.1513517089116225e-12 3.227027563367437e-12
363 1.6085597011540071e-06 2.1792656576691996e-15 -1.1999988183111727e-05 1.1999997636622327e-05 -1.9999996454933533e-05 0.00035265966724947254 -7.0531933449894616e-05 0.00010579790017484191 9.8160192583446247e-12 -1.9632038516689235e-12 2.9448057775033844e-12
364 2.055260103059484e-06 4.5456814434062011e-15 -1.1999992368460359e-05 1.1999998473692059e-05 -1.1999997710538123e-05 0.00023384037934380647 -4.6768075868761187e-05 7.0152113803141852e-05 1.4842771957873234e-11 -2.9685543915746481e-12 4.4528315873619713e-12
365 3.0172984460151415e-06 1.4383130788142618e-14 -1.1999996292456734e-05 1.1999999258491315e-05 -3.9999988877370353e-06 0.0001162477073306718 -2.32495414661343e-05 3.4874312199201616e-05 2.5133141936424933e-11 -5.0266283872849882e-12 7.5399425809274783e-12
366 2.1970480615081097e-06 5.5528672946824633e-15 -1.1999993250380159e-05 1.1999998650076044e-05 4.0000020248859443e-06 0.00020791786771805768 -4.1583573543611555e-05 6.2375360315417122e-05 1.6403310788346739e-11 -3.2806621576693479e-12 4.9209932365040247e-12
367 1.9822702039148075e-06 4.0783752384047354e-15 -1.1999991848027341e-05 1.1999998369605464e-05 1.2000002445591806e-05 0.00024899620739914861 -4.979924147982978e-05 7.4698862219744341e-05 1.4032604501868195e-11 -2.8065209003736378e-12 4.2097813505604624e-12
368 1.810615105346783e-06 3.1079715879714718e-15 -1.1999990402959143e-05 1.1999998080591792e-05 2.0000002879112254e-05 0.00029051909565637896 -5.8103819131276042e-05 8.715572869691367e-05 1.2109117707911695e-11 -2.4218235415823345e-12 3.6327353123735083e-12
369 1.1509614700955877e-06 7.9832729515982301e-16 -1.1999979609055517e-05 1.199999592181111e-05 2.8000006117283363e-05 0.00057241476338586107 -0.00011448295267717226 0.00017172442901575882 4.6402252607248009e-12 -9.2804505214495974e-13 1.3920675782174341e-12
370 1.0027138041734483e-06 5.2787318818615768e-16 -1.1999975102984895e-05 1.1999995020596953e-05 3.6000007469104465e-05 0.00067357166548583113 -0.0001347143330971659 0.00020207149964574929 3.0865904528866159e-12 -6.1731809057732649e-13 9.2597713586598469e-13
371 1.6541596000993779e-06 2.3699045324970367e-15 -1.1999988743406143e-05 1.9999997748681268e-05 -3.5999996623021711e-05 0.00033716689568883708 -6.7433379137767544e-05 0.0001011500687066515 1.033575048387845e-11 -2.0671500967756885e-12 3.100725145163529e-12
372 1.6523457844509981e-06 2.3621171493634211e-15 -1.1999988721844875e-05 1.9999997744368986e-05 -2.7999996616553451e-05 0.0003377655070008486 -6.7553101400169669e-05 0.00010132965210025431 1.0315097721169037e-11 -2.0630195442338083e-12 3.0945293163507153e-12
373 1.7307124309830658e-06 2.7143969674787803e-15 -1.199998960255671e-05 1.9999997920511395e-05 -1.9999996880767014e-05 0.00031315780799432113 -6.2631561598864246e-05 9.3947342398296741e-05 1.1205585918636845e-11 -2.2411171837273694e-12 3.3616757755910463e-12
374 1.774823917308878e-06 2.9272811763914141e-15 -1.1999990055729604e-05 1.9999998011145896e-05 -1.1999997016718876e-05 0.00030037207644725703 -6.0074415289451104e-05 9.0111622934176849e-05 1.1704991272827521e-11 -2.3409982545655087e-12 3.51149738184826e-12
375 2.0671503212704661e-06 4.625032619914484e-15 -1.1999992448657479e-05 1.9999998489731481e-05 -3.9999977345972364e-06 0.00023149553602556605 -4.6299107205113241e-05 6.9448660807669993e-05 1.4974307742727523e-11 -2.9948615485455044e-12 4.4922923228182519e-12
376 2.272870477080963e-06 6.1478418198123645e-15 -1.1999993662210059e-05 1.9999998732442003e-05 4.0000019013369707e-06 0.0001957107087246887 -3.9142141744937889e-05 5.8713212617406813e-05 1.723079805491813e-11 -3.4461596109836229e-12 5.169239416475434e-12
377 1.8973515011176857e-06 3.5763664162459064e-15 -1.1999991175505541e-05 1.9999998235101102e-05 1.2000002647348346e-05 0.00026842372201788867 -5.3684744403577852e-05 8.052711660536654e-05 1.3084176748278867e-11 -2.616835349655771e-12 3.9252530244836594e-12
378 2.0930037098268896e-06 4.8007447613176887e-15 -1.199999261886713e-05 1.9999998523773448e-05 2.0000002214339885e-05 0.00022651060307708997 -4.530212061541793e-05 6.7953180923126786e-05 1.5259884956094554e-11 -3.0519769912189131e-12 4.5779654868283713e-12
379 1.5046531371694429e-06 1.7836424802191715e-15 -1.1999986750577818e-05 1.9999997350115566e-05 2.8000003974826629e-05 0.00039166874835993941 -7.8333749671987909e-05 0.0001175006245079819 8.6289025998366835e-12 -1.7257805199673365e-12 2.5886707799510033e-12
380 2.6820348479213298e-06 1.0101639634533794e-14 -1.1999995357430629e-05 1.9999999071486164e-05 3.6000001392770801e-05 0.00014478939787198822 -2.8957879574397743e-05 4.3436819361596552e-05 2.161934749551556e-11 -4.3238694991031096e-12 6.4858042486546656e-12
381 2.2143528357598428e-06 5.6851128564521234e-15 -1.1999993347736306e-05 2.7999998669547213e-05 -3.5999998004320975e-05 0.00020503794279685004 -4.1007588559370032e-05 6.151138283905515e-05 1.6592589723020591e-11 -3.3185179446041178e-12 4.9777769169061723e-12
382 1.4726513785337097e-06 1.6722394592696578e-15 -1.1999986260501837e-05 2.7999997252100351e-05 -2.7999995878150518e-05 0.00040481201159529574 -8.0962402319059078e-05 0.00012144360347858894 8.2630026503178092e-12 -1.6526005300635634e-12 2.4789007950953387e-12
383 3.0124480592169066e-06 1.4313878446717551e-14 -1.199999628099093e-05 2.7999999256198129e-05 -1.9999998884297307e-05 0.00011659963229348051 -2.331992645869604e-05 3.4979889688043952e-05 2.5082752393851823e-11 -5.0165504787703667e-12 7.5248257181555521e-12
384 1.9704368963248734e-06 4.005771897702957e-15 -1.1999991758843447e-05 2.7999998351768677e-05 -1.199999752765302e-05 0.00025158275669111404 -5.0316551338222802e-05 7.5474827007334335e-05 1.3900818310763986e-11 -2.7801636621527972e-12 4.1702454932291912e-12
385 1.5590685316489866e-06 1.9842401802282439e-15 -1.1999987529429793e-05 2.7999997505885892e-05 -3.9999962588289408e-06 0.00037056817708197912 -7.4113635416395783e-05 0.00011117045312459402 9.250933168773067e-12 -1.8501866337546145e-12 2.7752799506319157e-12
386 1.119819256765649e-06 7.3526250035510562e-16 -1.1999978753744405e-05 2.7999995750748902e-05 4.0000063738766774e-06 0.0005924269532624224 -0.00011848539065248459 0.00017772808597872665 4.3034758324570289e-12 -8.6069516649140474e-13 1.2910427497371091e-12
387 2.0109819485512046e-06 4.258171402160358e-15 -1.1999992058702472e-05 2.7999998411740504e-05 1.200000238238925e-05 0.00024287375055771559 -4.8574750111543144e-05 7.2862125167314401e-05 1.4351854229276085e-11 -2.870370845855217e-12 4.3055562687828301e-12
388 3.0961785266080624e-06 1.5540915717999895e-14 -1.1999996471813855e-05 2.7999999294362747e-05 2.0000001058455883e-05 0.00011073641884185536 -2.2147283768371034e-05 3.3220925652556521e-05 2.5950941120018665e-11 -5.1901882240037352e-12 7.7852823360056003e-12
389 2.5432927325227233e-06 8.6136589666684793e-15 -1.1999994866312231e-05 2.7999998973262433e-05 2.800000154010634e-05 0.00015965204594853974 -3.1930409189707943e-05 4.7895613784561982e-05 2.014486649338966e-11 -4.0289732986779326e-12 6.0434599480168964e-12
390 2.4527792630556017e-06 7.7263436329723137e-15 -1.1999994503687646e-05 2.7999998900737534e-05 3.6000001648893744e-05 0.00017056861163123075 -3.4113722326246136e-05 5.1170583489369139e-05 1.9175675313717814e-11 -3.8351350627435632e-12 5.7527025941153448e-12
391 1.7597728451558521e-06 2.8534381140513258e-15 -1.199998990433072e-05 3.5999997980866104e-05 -3.5999996971299135e-05 0.00030465290195952664 -6.0930580391905361e-05 9.1395870587858004e-05 1.1534752432677174e-11 -2.3069504865354346e-12 3.4604257298031514e-12
392 2.8131168114809054e-06 1.1656332322322154e-14 -1.1999995760457986e-05 3.5999999152091594e-05 -2.7999998728137417e-05 0.00013252619330745541 -2.6505238661491023e-05 3.9757857992236583e-05 2.3000969094320838e-11 -4.6001938188641691e-12 6.9002907282962516e-12
393 2.0243963834423178e-06 4.3439546297940117e-15 -1.1999992154439968e-05 3.5999998430888007e-05 -1.9999997646332014e-05 0.00024008577881396096 -4.8017155762791958e-05 7.2025733644188141e-05 1.4500763379524289e-11 -2.9001526759048623e-12 4.3502290138572886e-12
394 1.7521287429370473e-06 2.816415103369801e-15 -1.1999989826175549e-05 3.5999997965235039e-05 -1.1999996947852671e-05 0.00030685910901519508 -6.1371821803039159e-05 9.2057732704558745e-05 1.1448227304007122e-11 -2.2896454608014224e-12 3.4344681912021322e-12
395 1.147151277361052e-06 7.9042506105284691e-16 -1.1999979506819953e-05 3.5999995901363965e-05 -3.9999938520460116e-06 0.00057482618443408504 -0.0001149652368868171 0.00017244785533022556 4.5987945507186449e-12 -9.1975891014372805e-13 1.379638365215592e-12
396 2.874652764542367e-06 1.2438121671021064e-14 -1.1999995932063927e-05 3.5999999186412834e-05 4.0000012203808163e-06 0.00012728654409126068 -2.5457308818252244e-05 3.8185963227378177e-05 2.3646003829434014e-11 -4.7292007658868003e-12 7.0938011488302036e-12
397 3.6946176816053768e-06 2.6406274606611194e-14 -1.1999997493708453e-05 3.5999999498741759e-05 1.2000000751887451e-05 7.911468311992303e-05 -1.5822936623984611e-05 2.3734404935976962e-05 3.2067424211548816e-11 -6.4134848423097623e-12 9.620227263464641e-12
398 2.3804599586242181e-06 7.0628708401441519e-15 -1.1999994186309564e-05 3.599999883726197e-05 2.0000001744107068e-05 0.00018008271153924262 -3.6016542307848566e-05 5.4024813461772887e-05 1.8396921905854222e-11 -3.679384381170843e-12 5.5190765717562621e-12
399 1.6992794322754885e-06 2.569171080574098e-15 -1.1999989261463769e-05 3.5999997852292804e-05 2.8000003221560859e-05 0.0003227260540278401 -6.4545210805567853e-05 9.681781620835228e-05 1.0848880035548059e-11 -2.1697760071096147e-12 3.2546640106644132e-12
400 1.8436189028633718e-06 3.2810441880878041e-15 -1.1999990707957506e-05 3.5999998141591547e-05 3.6000002787612712e-05 0.00028182442965337778 -5.6364885930675505e-05 8.4547328896013101e-05 1.2480867897657449e-11 -2.4961735795314908e-12 3.7442603692972394e-12
401 1.669515004361605e-06 2.4365178752503241e-15 -3.9999889236202301e-06 -3.6000002215275991e-05 -3.599999667708609e-05 0.00033215601217246964 -6.6431202434493906e-05 9.9646803651741062e-05 1.0510518191924933e-11 -2.1021036383849869e-12 3.1531554575774769e-12
402 1.4479142867499385e-06 1.5893779456885675e-15 -3.9999858642407236e-06 -3.6000002827151817e-05 -2.7999995759272185e-05 0.0004153628680753043 -8.3072573615060704e-05 0.00012460886042259096 7.9802577222106893e-12 -1.5960515444421405e-12 2.3940773166632116e-12
403 1.6545543567561722e-06 2.3716016339169072e-15 -3.9999887480909198e-06 -3.6000002250381794e-05 -1.9999996624427306e-05 0.00033703680399175959 -6.7407360798351821e-05 0.00010111104119752766 1.0340245085001031e-11 -2.068049017000208e-12 3.1020735255003117e-12
404 1.3217084468832247e-06 1.2089424264236317e-15 -3.999983576283216e-06 -3.6000003284743348e-05 -1.1999995072884964e-05 0.00047491777785940557 -9.4983555571881016e-05 0.00014247533335782201 6.5429555708740175e-12 -1.3085911141748047e-12 1.9628866712622003e-12
405 2.648769701057489e-06 9.7304118382709194e-15 -3.9999952461846724e-06 -3.6000000950762975e-05 -3.9999985738554021e-06 0.00014816383316150028 -2.9632766632300082e-05 4.4449149948450027e-05 2.1266999609810441e-11 -4.2533999219620875e-12 6.3800998829431313e-12
406 1.3742722465567222e-06 1.3589921569166944e-15 -3.9999845867501125e-06 -3.6000003082649906e-05 4.0000046239749681e-06 0.0004489055660968855 -8.9781113219376853e-05 0.00013467166982906534 7.1400178216853844e-12 -1.4280035643370801e-12 2.1420053465056185e-12
407 3.3014869896779861e-06 1.8842017065909904e-14 -3.9999968826084426e-06 -3.6000000623478307e-05 1.2000000935217485e-05 9.8069734038402719e-05 -1.9613946807680553e-05 2.9420920211520871e-05 2.8065713740510615e-11 -5.6131427481021226e-12 8.4197141221531794e-12
408 2.0561568314856346e-06 4.5516340046221422e-15 -3.9999923745515856e-06 -3.6000001525089585e-05 2.0000002287634558e-05 0.0002336623694252673 -4.6732473885053396e-05 7.0098710827580139e-05 1.4852696349341949e-11 -2.9705392698683908e-12 4.4558089048025839e-12
409 2.3060319798664424e-06 6.4208806822197223e-15 -3.9999938308710994e-06 -3.6000001233825861e-05 2.8000001850738637e-05 0.00019069277601225856 -3.813855520245147e-05 5.7207832803677328e-05 1.7591213964306572e-11 -3.5182427928613192e-12 5.2773641892919754e-12
410 1.4239415564260764e-06 1.5117330796603757e-15 -3.9999854649557848e-06 -3.6000002907008877e-05 3.6000004360513125e-05 0.00042592455460553071 -8.5184910921106004e-05 0.00012777736638165882 7.7064215610009697e-12 -1.5412843122001956e-12 2.3119264683002957e-12
411 1.5212921310851945e-06 1.8434717169977501e-15 -3.9999869957908579e-06 -2.800000260084185e-05 -3.5999996098737211e-05 0.00038505348890115334 -7.7010697780230728e-05 0.00011551604667034609 8.8191485245242811e-12 -1.7638297049048553e-12 2.6457445573572826e-12
412 1.2614050006392393e-06 1.0509021181120817e-15 -3.9999823032144405e-06 -2.8000003539357138e-05 -2.7999994690964352e-05 0.00050702116443317744 -0.00010140423288663562 0.0001521063493299538 5.8628328038940262e-12 -1.1725665607788033e-12 1.7588498411682007e-12
413 1.5589507896214381e-06 1.9837906602478176e-15 -3.9999875278146424e-06 -2.8000002494437091e-05 -1.9999996258344392e-05 0.00037061220235764684 -7.4122440471529387e-05 0.00011118366070729407 9.2495878520032504e-12 -1.8499175704006493e-12 2.7748763556009743e-12
414 1.4248643194148403e-06 1.5146739493464894e-15 -3.9999854806117751e-06 -2.8000002903877638e-05 -1.1999995644183535e-05 0.00042551175429321101 -8.5102350858642269e-05 0.00012765352628796374 7.7169578598730035e-12 -1.5433915719745999e-12 2.315087357961895e-12
415 1.9550136931072949e-06 3.9124430869757837e-15 -3.9999916404731814e-06 -2.8000001671905354e-05 -3.9999974921419581e-06 0.00025501095515633316 -5.1002191031266561e-05 7.6503286546899987e-05 1.3728868265440871e-11 -2.7457736530881758e-12 4.1186604796322599e-12
416 2.101473622149292e-06 4.8592635185066036e-15 -3.9999926734198037e-06 -2.8000001465316105e-05 4.0000021979740473e-06 0.00022491054546040703 -4.4982109092081388e-05 6.7473163638122241e-05 1.5353317081747426e-11 -3.0706634163494858e-12 4.6059951245242241e-12
417 2.0311859521767665e-06 4.3878086009157792e-15 -3.9999922022606262e-06 -2.8000001559547907e-05 1.2000002339321801e-05 0.00023869185568844666 -4.7738371137689188e-05 7.1607556706534083e-05 1.4576071944248331e-11 -2.9152143888496685e-12 4.3728215832744973e-12
418 2.4199100171199561e-06 7.4198696232055959e-15 -3.9999943626683881e-06 -2.8000001127466304e-05 2.0000001691199516e-05 0.0001748006349686107 -3.4960126993722142e-05 5.2440190490583478e-05 1.8822224469050796e-11 -3.7644448938101595e-12 5.6466673407152319e-12
419 2.7387643493099392e-06 1.0756292911919398e-14 -3.9999955384947252e-06 -2.800000089230104e-05 2.8000001338451522e-05 0.00013928741156789341 -2.7857482313578769e-05 4.1786223470367912e-05 2.2218591173769295e-11 -4.4437182347538591e-12 6.6655773521307939e-12
420 2.2083512408334563e-06 5.6390126791939471e-15 -3.9999933142045931e-06 -2.8000001337159082e-05 3.6000002005738621e-05 0.00020603026387630159 -4.1206052775260356e-05 6.1809079162890629e-05 1.6526973122698619e-11 -3.3053946245397234e-12 4.9580919368095819e-12
421 3.584256275124452e-06 2.4109920873649934e-14 -3.9999973414917173e-06 -2.0000000531701709e-05 -3.5999999202447446e-05 8.3848599756544044e-05 -1.6769719951308841e-05 2.5154579926963327e-05 3.0949700259558363e-11 -6.189940051911672e-12 9.2849100778675031e-12
422 1.6644700505488567e-06 2.4144964862243696e-15 -3.9999888648657203e-06 -2.0000002227026873e-05 -2.799999665945978e-05 0.00033379116866677559 -6.6758233733355126e-05 0.00010013735060003279 1.0453113929899314e-11 -2.090622785979862e-12 3.1359341789697912e-12
423 2.1648542119761498e-06 5.3123243939367641e-15 -3.9999930636550611e-06 -2.0000001387268943e-05 -1.9999997919096559e-05 0.00021343129887005599 -4.2686259774011246e-05 6.4029389661016933e-05 1.6050500223856067e-11 -3.2101000447712123e-12 4.8151500671568166e-12
424 1.5547999925735937e-06 1.9679869397060673e-15 -3.9999874706872193e-06 -2.0000002505862547e-05 -1.1999996241206162e-05 0.00037216865633811426 -7.4433731267623058e-05 0.0001116505969014347 9.2021586730217241e-12 -1.8404317346043418e-12 2.7606476019065105e-12
425 1.5238771353817526e-06 1.852885065452497e-15 -3.999987033316336e-06 -2.0000002593336768e-05 -3.9999961099948944e-06 0.00038403886249264676 -7.6807772498529159e-05 0.00011521165874779364 8.8487026865482318e-12 -1.7697405373096493e-12 2.6546108059644745e-12
426 1.8990366204539002e-06 3.5859038555686719e-15 -3.999991189616479e-06 -2.000000176207675e-05 4.0000026431150637e-06 0.00026801792662857108 -5.3603585325714216e-05 8.0405377988571378e-05 1.3103057795276076e-11 -2.6206115590552158e-12 3.9309173385828219e-12
427 1.9153874280094415e-06 3.6793281219744693e-15 -3.9999913248642871e-06 -2.0000001735027071e-05 1.2000002602540671e-05 0.00026412453643717774 -5.2824907287435707e-05 7.9237360931153373e-05 1.3286135431265001e-11 -2.6572270862529977e-12 3.9858406293794999e-12
428 1.8150518039605497e-06 3.1308747706032012e-15 -3.999990444787757e-06 -2.0000001911042462e-05 2.0000002866563705e-05 0.00028932888623415582 -5.7865777246831257e-05 8.6798665870246682e-05 1.2159143247180159e-11 -2.4318286494360302e-12 3.6477429741540479e-12
429 2.8106254989064652e-06 1.1625390993667823e-14 -3.9999957532869154e-06 -2.0000000849342564e-05 2.80000012740139e-05 0.00013274491307731549 -2.6548982615463088e-05 3.982347392319475e-05 2.2974808005284371e-11 -4.5949616010568753e-12 6.892442401585308e-12
430 2.1587557088089603e-06 5.2675554925797913e-15 -3.9999930274379864e-06 -2.0000001394512427e-05 3.6000002091768566e-05 0.00021449913393279592 -4.2899826786559121e-05 6.4349740179838594e-05 1.5983567453964071e-11 -3.1967134907928154e-12 4.7950702361892243e-12
431 3.7188109983997599e-06 2.692842434817249e-14 -3.9999975253442198e-06 -1.2000000494931194e-05 -3.5999999257603243e-05 7.812978103112756e-05 -1.5625956206225552e-05 2.3438934309338299e-05 3.2311913994632757e-11 -6.4623827989265508e-12 9.6935741983898245e-12
432 1.0583882244399385e-06 6.2077414457030941e-16 -3.9999769283406732e-06 -1.2000004614331868e-05 -2.7999993078502275e-05 0.00063388296232154754 -0.00012677659246430954 0.00019016488869646401 3.6538793393087772e-12 -7.3077586786175522e-13 1.0961638017926349e-12
433 1.8834597148228904e-06 3.4983852153317879e-15 -3.9999910579283539e-06 -1.2000001788414318e-05 -1.9999997317378509e-05 0.00027180187255075003 -5.4360374510149883e-05 8.1540561765224977e-05 1.2928433043086358e-11 -2.5856866086172741e-12 3.8785299129259079e-12
434 1.6206364001418514e-06 2.2287193805650167e-15 -3.9999883352717294e-06 -1.2000002332945638e-05 -1.1999996500581536e-05 0.00034846523781591074 -6.9693047563182083e-05 0.00010453957134477308 9.9537637787690007e-12 -1.9907527557538006e-12 2.9861291336307018e-12
435 1.9698656388110299e-06 4.0022889179456516e-15 -3.9999917545024271e-06 -1.2000001649099521e-05 -3.9999975263507228e-06 0.00025170857645073758 -5.0341715290147599e-05 7.5512572935221365e-05 1.3894453183832259e-11 -2.7788906367664512e-12 4.168335955149676e-12
436 1.5278653425932158e-06 1.8674709782558713e-15 -3.9999870909149898e-06 -1.2000002581817008e-05 4.0000038727255035e-06 0.00038248031506543819 -7.6496063013087567e-05 0.00011474409451963142 8.8942979834551767e-12 -1.7788595966910357e-12 2.668289395036551e-12
437 1.2887886571101002e-06 1.1208402999082303e-15 -3.9999828972066709e-06 -1.2000003420558677e-05 1.2000005130837983e-05 0.00049213615985208156 -9.8427231970416018e-05 0.00014764084795562427 6.1708817770151621e-12 -1.2341763554030359e-12 1.8512645331045506e-12
438 2.9325271474524183e-06 1.3204584679042245e-14 -3.9999960842676163e-06 -1.2000000783146489e-05 2.0000001174719733e-05 0.00012263030883526594 -2.4526061767053164e-05 3.6789092650579804e-05 2.4250695805374313e-11 -4.8501391610748628e-12 7.2752087416122906e-12
439 1.6390724698840058e-06 2.3056484514355566e-15 -3.9999885622673944e-06 -1.2000002287546551e-05 2.8000003431319773e-05 0.0003421899044194746 -6.8437980883894842e-05 0.00010265697132584236 1.0163908763247717e-11 -2.0327817526495455e-12 3.0491726289743148e-12
440 1.2421202789152498e-06 1.0034357706445768e-15 -3.9999818682287621e-06 -1.2000003626354249e-05 3.6000005439531334e-05 0.00051781616412702387 -0.00010356323282540514 0.00015534484923810692 5.6468440242832901e-12 -1.1293688048566542e-12 1.694053207284989e-12
441 2.3534265292760101e-06 6.8249670130470682e-15 -3.9999940607569195e-06 -4.0000011878486296e-06 -3.5999998218226975e-05 0.00018383598114024016 -3.676719622804798e-05 5.515079434207201e-05 1.8104783087712199e-11 -3.6209566175424413e-12 5.4314349263136594e-12
442 2.0488401412230538e-06 4.5032166900028246e-15 -3.9999923246448669e-06 -4.0000015350710229e-06 -2.7999997697393425e-05 0.00023512042480753673 -4.7024084961507199e-05 7.0536127442260728e-05 1.4771699535579662e-11 -2.9543399071159356e-12 4.4315098606739026e-12
443 1.9416463307499667e-06 3.8327368433372909e-15 -3.9999915358853554e-06 -4.0000016928229302e-06 -1.9999997460765659e-05 0.00025803540510836091 -5.1607081021672345e-05 7.741062153250849e-05 1.3579670725695911e-11 -2.715934145139179e-12 4.0739012177087682e-12
444 1.5320698939043208e-06 1.8829307929971211e-15 -3.9999871512511625e-06 -4.0000025697497674e-06 -1.1999996145375365e-05 0.00038084617010095503 -7.6169234020191336e-05 0.00011425385103028652 8.9423642874700506e-12 -1.7884728574940049e-12 2.6827092862410141e-12
445 2.0997048641714618e-06 4.8470040797393557e-15 -3.9999926620761268e-06 -4.0000014675847807e-06 -3.9999977986228433e-06 0.00022524335589202036 -4.5048671178403992e-05 6.7573006767606195e-05 1.5333810961170242e-11 -3.0667621922340506e-12 4.6001432883510692e-12
446 1.6771555494641158e-06 2.4701234176217695e-15 -3.9999890117691854e-06 -4.0000021976461608e-06 4.0000032964692392e-06 0.00032970012023074066 -6.5940024046148193e-05 9.8910036069222086e-05 1.0597427868204092e-11 -2.1194855736408172e-12 3.179228360461229e-12
447 1.626625327771599e-06 2.25351894374283e-15 -3.9999884097039627e-06 -4.0000023180592042e-06 1.2000003477088821e-05 0.0003464099169508746 -6.9281983390174823e-05 0.00010392297508526248 1.0022047325031714e-11 -2.004409465006344e-12 3.0066141975095117e-12
448 1.3805168404620373e-06 1.3776019497345274e-15 -3.9999847011007242e-06 -4.0000030597798717e-06 2.0000004589669775e-05 0.00044593274782473092 -8.9186549564946254e-05 0.0001337798243474195 7.2111332099646684e-12 -1.4422266419929328e-12 2.1633399629893976e-12
449 1.0508528010060097e-06 6.0760911573690839e-16 -3.9999766911166526e-06 -4.0000046617766798e-06 2.8000006992664968e-05 0.00063914233145461797 -0.00012782846629092349 0.00019174269943638536 3.575775365986818e-12 -7.1515507319736487e-13 1.0727326097960448e-12
450 1.6897064623832909e-06 2.5259945982749539e-15 -3.9999891544212363e-06 -4.0000021691157644e-06 3.6000003253673529e-05 0.00032571893866874534 -6.5143787733749008e-05 9.771568160062335e-05 1.074011484416284e-11 -2.1480229688325697e-12 3.2220344532488568e-12
451 1.0830756637603984e-06 6.6523488395215347e-16 -3.9999776847741345e-06 3.9999955369548227e-06 -3.5999993305432195e-05 0.00061691407884949929 -0.0001233828157698998 0.00018507422365484952 3.9123204378547287e-12 -7.8246408757094681e-13 1.1736961313564209e-12
452 1.2147431123422558e-06 9.3853820934452245e-16 -3.9999812259441442e-06 3.9999962451888253e-06 -2.7999994367783295e-05 0.0005335908085095382 -0.00010671816170190785 0.00016007724255286154 5.3418078014908276e-12 -1.0683615602981637e-12 1.6025423404472476e-12
453 1.7953975099510958e-06 3.0302640802617118e-15 -3.9999902574798352e-06 3.9999980514959493e-06 -1.999999707724393e-05 0.00029465313759019968 -5.8930627518040101e-05 8.8395941277060049e-05 1.1937414575327398e-11 -2.3874829150654771e-12 3.5812243725982173e-12
454 1.8055234997339614e-06 3.0818255994509313e-15 -3.9999903546320672e-06 3.9999980709264116e-06 -1.1999997106389619e-05 0.00029189333680352891 -5.8378667360705844e-05 8.7568001041058772e-05 1.2051688502353145e-11 -2.4103377004706277e-12 3.6155065507059415e-12
455 1.8414318082108664e-06 3.2693810759089367e-15 -3.9999906881792406e-06 3.99999813763585e-06 -3.99999720645377e-06 0.0002823893843254402 -5.6477876865088211e-05 8.4716815297632202e-05 1.245626022014433e-11 -2.4912520440288633e-12 3.7368780660432962e-12
456 3.0087239311164012e-06 1.4260857605040405e-14 -3.9999962721518779e-06 3.9999992544303688e-06 4.0000011183544196e-06 0.00011687090063973794 -2.3374180127947562e-05 3.5061270191921308e-05 2.5044055064154403e-11 -5.0088110128308817e-12 7.5132165192463205e-12
457 1.9468835208314021e-06 3.863834621388868e-15 -3.9999915770855326e-06 3.9999983154171033e-06 1.2000002526874321e-05 0.00025684450099626227 -5.1368900199252563e-05 7.7053350298878767e-05 1.3638143243787893e-11 -2.7276286487575769e-12 4.091442973136366e-12
458 1.3959425090288082e-06 1.4242991656553289e-15 -3.9999849786319079e-06 3.9999969957263765e-06 2.0000004506410414e-05 0.0004386932696658318 -8.7738653933166209e-05 0.00013160798089974975 7.3869352352783675e-12 -1.477387047055676e-12 2.2160805705835073e-12
459 1.9855223525751249e-06 4.0984813592855429e-15 -3.9999918722934351e-06 3.9999983744586777e-06 2.8000002438311949e-05 0.00024829189328211065 -4.9658378656422404e-05 7.4487567984633414e-05 1.4068801848425468e-11 -2.8137603696850884e-12 4.2206405545276353e-12
460 3.4232627027059896e-06 2.1004836598869814e-14 -3.9999970935990752e-06 3.9999994187198196e-06 3.6000000871920287e-05 9.1540335525948179e-05 -1.8308067105189578e-05 2.7462100657784434e-05 2.9311487048583334e-11 -5.8622974097166688e-12 8.7934461145750016e-12
461 1.6881975342061794e-06 2.5192334090964169e-15 -3.9999891374105413e-06 1.1999997827482121e-05 -3.5999996741223119e-05 0.00032619411899877874 -6.5238823799755694e-05 9.7858235699633771e-05 1.0722965541144556e-11 -2.1445931082289107e-12 3.2168896623433618e-12
462 3.0454314759258697e-06 1.4789214859720439e-14 -3.9999963579410816e-06 1.1999999271588203e-05 -2.7999998907382311e-05 0.00011423685410120374 -2.2847370820240782e-05 3.4271056230361151e-05 2.5425172400536606e-11 -5.0850344801073208e-12 7.6275517201609804e-12
463 1.9099342681958877e-06 3.6479920661080813e-15 -3.9999912800921779e-06 1.1999998256018427e-05 -1.9999997384027672e-05 0.00026541419752589441 -5.3082839505179055e-05 7.9624259257768433e-05 1.3225102671031604e-11 -2.6450205342063177e-12 3.9675308013094776e-12
464 1.7965124962689868e-06 3.0359131941703679e-15 -3.9999902682458501e-06 1.1999998053649181e-05 -1.1999997080473756e-05 0.00029434749488858408 -5.886949897771663e-05 8.8304248466575087e-05 1.1950001380665835e-11 -2.3900002761331707e-12 3.5850004141997524e-12
465 1.812119670742573e-06 3.1157259140542372e-15 -3.9999904171733217e-06 1.1999998083434644e-05 -3.9999971251520004e-06 0.00029011471775664308 -5.8022943551328637e-05 8.7034415326992898e-05 1.2126084042495978e-11 -2.4252168084991954e-12 3.6378252127487933e-12
466 3.3921103059092612e-06 2.0436594198579139e-14 -3.9999970416872262e-06 1.1999999408337441e-05 4.0000008874938255e-06 9.3148299462893973e-05 -1.8629659892578756e-05 2.7944489838868156e-05 2.8993363257965691e-11 -5.7986726515931384e-12 8.6980089773897068e-12
467 4.2299003466221374e-06 3.9626802447970631e-14 -3.9999980755757797e-06 1.1999999615115148e-05 1.2000000577327251e-05 6.0942944208418131e-05 -1.2188588841683615e-05 1.8282883262525395e-05 3.7437504956793115e-11 -7.4875009913586202e-12 1.1231251487037931e-11
468 2.0244940836136941e-06 4.344583595936158e-15 -3.99999215513111e-06 1.1999998431026217e-05 2.0000002353460669e-05 0.00024006563928801502 -4.8013127857603021e-05 7.2019691786404585e-05 1.4501847337404295e-11 -2.9003694674808585e-12 4.3505542012212852e-12
469 1.3641410557272487e-06 1.3291575476459997e-15 -3.9999843987253204e-06 1.1999996879745057e-05 2.8000004680382434e-05 0.00045378092227142918 -9.0756184454285948e-05 0.00013613427668142942 7.0247127263243834e-12 -1.4049425452648752e-12 2.1074138178973062e-12
470 3.9854158321198465e-06 3.3145116317359416e-14 -3.9999978378929467e-06 1.1999999567578583e-05 3.6000000648632143e-05 6.8380257945767603e-05 -1.3676051589153475e-05 2.051407738373029e-05 3.4994422640549906e-11 -6.9988845281099858e-12 1.0498326792164975e-11
471 1.5481230647179833e-06 1.9427417142909779e-15 -3.9999873780194254e-06 1.9999997475603891e-05 -3.5999996213405828e-05 0.00037469046675986606 -7.4938093351973185e-05 0.00011240714002795964 9.125855730533148e-12 -1.8251711461066307e-12 2.7377567191599469e-12
472 3.8478464463058534e-06 2.982990155215083e-14 -3.9999976844567721e-06 1.9999999536891328e-05 -2.7999999305337082e-05 7.3170812373738204e-05 -1.4634162474747629e-05 2.1951243712121471e-05 3.3612828677634738e-11 -6.7225657355269485e-12 1.0083848603290419e-11
473 2.0187767560213444e-06 4.3078791291254241e-15 -3.9999921145376972e-06 1.9999998422907551e-05 -1.9999997634361287e-05 0.00024124820768897594 -4.8249641537795271e-05 7.2374462306692625e-05 1.4438400989332057e-11 -2.8876801978664098e-12 4.3315202967996187e-12
474 1.5453158880012427e-06 1.9321926762661315e-15 -3.9999873387719548e-06 1.9999997467754423e-05 -1.1999996201631607e-05 0.00037575742339474917 -7.515148467895005e-05 0.00011272722701842506 9.093772703923784e-12 -1.8187545407847525e-12 2.7281318111771288e-12
475 1.3264745698630102e-06 1.2220680997385412e-15 -3.9999836715596351e-06 1.999999673431185e-05 -3.999995101467877e-06 0.00047248497641693988 -9.4496995283387361e-05 0.00014174549292508145 6.5969584549248513e-12 -1.3193916909849784e-12 1.9790875364774606e-12
476 2.4219344438632174e-06 7.4385069510576006e-15 -3.9999943715061401e-06 1.9999998874301241e-05 4.0000016885481523e-06 0.00017453562991203163 -3.4907125982406402e-05 5.2360688973609494e-05 1.8844017210774659e-11 -3.7688034421549304e-12 5.6532051632323961e-12
477 3.8005731959104659e-06 2.874391537687638e-14 -3.9999976279779671e-06 1.9999999525595581e-05 1.2000000711606616e-05 7.4932083235556855e-05 -1.498641664711133e-05 2.2479624970667038e-05 3.313681478837517e-11 -6.6273629576750343e-12 9.9410444365125523e-12
478 2.9637514893332638e-06 1.363088262088626e-14 -3.9999961629150311e-06 1.9999999232582954e-05 2.0000001151125468e-05 0.00012022101040164401 -2.4044202080328862e-05 3.6066303120493282e-05 2.4576176148042217e-11 -4.9152352296084429e-12 7.3728528444126632e-12
479 1.996072614908925e-06 4.1641621418043969e-15 -3.9999919502998196e-06 1.9999998390059976e-05 2.8000002414910031e-05 0.00024602622271383234 -4.9205244542766368e-05 7.3807866814149477e-05 1.4186165528211337e-11 -2.837233105642269e-12 4.2558496584634043e-12
480 1.5435447683327526e-06 1.9255567053605653e-15 -3.9999873139216166e-06 1.9999997462784362e-05 3.6000003805823455e-05 0.00037643264903194733 -7.5286529806389309e-05 0.00011292979470958418 9.073529840502567e-12 -1.8147059681005163e-12 2.7220589521507702e-12
481 2.3938492467132343e-06 7.1827212697719386e-15 -3.9999942470600104e-06 2.7999998849411972e-05 -3.5999998274118011e-05 0.00017826450994474518 -3.5652901988949037e-05 5.3479352983423545e-05 1.8541403305261037e-11 -3.7082806610522086e-12 5.5624209915783132e-12
482 1.4556231147732222e-06 1.6148993232582314e-15 -3.999985989409646e-06 2.7999997197881921e-05 -2.799999579682288e-05 0.00041203753572647021 -8.2407507145294386e-05 0.00012361126071794149 8.0683546966087383e-12 -1.6136709393217426e-12 2.4205064089826161e-12
483 2.0150155697787894e-06 4.2838459113795216e-15 -3.9999920876670042e-06 2.7999998417533342e-05 -1.9999997626300115e-05 0.00024203065168641936 -4.8406130337283931e-05 7.2609195505925951e-05 1.4396646703647979e-11 -2.8793293407295947e-12 4.3189940110943898e-12
484 1.8461103562833891e-06 3.2943641113882471e-15 -3.9999907304147351e-06 2.7999998146082982e-05 -1.1999997219124422e-05 0.00028118276185281932 -5.623655237056378e-05 8.4354828555845826e-05 1.2508895210311355e-11 -2.5017790420622728e-12 3.7526685630934055e-12
485 2.3132892536357091e-06 6.4816927931245732e-15 -3.9999938669066397e-06 2.7999998773381346e-05 -3.9999981600720037e-06 0.00018961926498807643 -3.7923852997615259e-05 5.6885779496422733e-05 1.76699706807758e-11 -3.533994136155161e-12 5.3009912042327445e-12
486 1.2805842110222247e-06 1.0995704270004765e-15 -3.9999827220860073e-06 2.7999996544417219e-05 4.000005183374201e-06 0.00049654172859580129 -9.9308345719160336e-05 0.00014896251857874016 6.0784345305004532e-12 -1.2156869061000897e-12 1.8235303591501381e-12
487 2.7402915363383668e-06 1.0774296687218035e-14 -3.9999955432244081e-06 2.7999999108644884e-05 1.2000001337032695e-05 0.00013914352934671917 -2.7828705869343816e-05 4.174305880401571e-05 2.2234695097047666e-11 -4.4469390194095332e-12 6.6704085291142998e-12
488 1.7235177928381915e-06 2.680685936913542e-15 -3.9999895258606997e-06 2.7999997905172159e-05 2.0000003142241812e-05 0.00031531341558487029 -6.3062683116974351e-05 9.459402467546135e-05 1.1123999571004868e-11 -2.2247999142009692e-12 3.3371998713014569e-12
489 3.2676566175048098e-06 1.8268709051854885e-14 -3.9999968199603942e-06 2.7999999363992077e-05 2.8000000954011853e-05 0.0001000053885247362 -2.0001077704947213e-05 3.0001616557420803e-05 2.7718538540600579e-11 -5.5437077081201161e-12 8.3155615621801734e-12
490 2.5498741305279161e-06 8.6807020674284228e-15 -3.9999948912977795e-06 2.7999998978259568e-05 3.6000001532610763e-05 0.00015889806979994058 -3.1779613959988062e-05 4.7669420939982273e-05 2.0215108375100561e-11 -4.0430216750201141e-12 6.0645325125301647e-12
491 2.2690636772514407e-06 6.1170027197382616e-15 -3.9999936424189173e-06 3.5999998728483695e-05 -3.5999998092725742e-05 0.00019629881905802946 -3.9259763811605928e-05 5.8889645717408801e-05 1.7189366355070806e-11 -3.4378732710141616e-12 5.1568099065212408e-12
492 1.9822890425105494e-06 4.078491516587825e-15 -3.99999184816823e-06 3.5999998369633715e-05 -2.7999997554450499e-05 0.0002489921194649037 -4.9798423892980721e-05 7.4697635839471088e-05 1.403281420749567e-11 -2.8065628414991341e-12 4.2098442622487005e-12
493 1.8565260924384771e-06 3.3504396101868986e-15 -3.9999908234601016e-06 3.5999998164692081e-05 -1.9999997247038094e-05 0.0002785220388517492 -5.5704407770349808e-05 8.3556611655524702e-05 1.2626010227689362e-11 -2.5252020455378737e-12 3.7878030683068081e-12
494 1.8828138322939789e-06 3.494787414259414e-15 -3.9999910524070137e-06 3.5999998210481503e-05 -1.1999997315722089e-05 0.00027196037300299385 -5.4392074600599004e-05 8.1588111900898492e-05 1.292118793340343e-11 -2.5842375866806818e-12 3.8763563800210224e-12
495 2.1212046319105135e-06 4.9974254325919016e-15 -3.9999927982533647e-06 3.5999998559650683e-05 -3.9999978394760072e-06 0.00022124479267328213 -4.4248958534656474e-05 6.6373437801984562e-05 1.5570729283232715e-11 -3.1141458566465425e-12 4.6712187849698141e-12
496 2.1501785216132858e-06 5.2050173355802364e-15 -3.9999929760334703e-06 3.5999998595206727e-05 4.0000021071899547e-06 0.00021601389468439255 -4.3202778936878517e-05 6.4804168405317819e-05 1.5889376472177248e-11 -3.1778752944354489e-12 4.7668129416531713e-12
497 1.5607367554236291e-06 1.9906164871390147e-15 -3.9999875522824088e-06 3.5999997510456484e-05 1.2000003734315253e-05 0.00036994514720580738 -7.3989029441161476e-05 0.00011098354416174209 9.2699938439861824e-12 -1.8539987687972364e-12 2.7809981531958556e-12
498 1.579988641795122e-06 2.0651923947607404e-15 -3.9999878118029929e-06 3.5999997562360616e-05 2.0000003656459082e-05 0.00036285431112004798 -7.2570862224009453e-05 0.00010885629333601436 9.4899016334864643e-12 -1.8979803266972952e-12 2.8469704900459398e-12
499 2.5432992344724049e-06 8.6137250295164225e-15 -3.9999948663370188e-06 3.5999998973267462e-05 2.8000001540098882e-05 0.00015965129851901554 -3.1930259703803189e-05 4.7895389555704712e-05 2.0144935902422331e-11 -4.0289871804844641e-12 6.0434807707266982e-12
500 1.5721852400743119e-06 2.0347439531039421e-15 -3.999987707536444e-06 3.5999997541507363e-05 3.6000003687739093e-05 0.00036570659513666818 -7.3141319027333735e-05 0.00010971197854100039 9.4007798332931381e-12 -1.8801559666586263e-12 2.8202339499879415e-12
501 1.9466703881480263e-06 3.8625657946468908e-15 4.0000084245854902e-06 -3.6000001684917106e-05 -3.5999997472624367e-05 0.00025689281560111214 -5.1378563120222309e-05 7.7067844680333327e-05 1.3635764111458175e-11 -2.7271528222916372e-12 4.090729233437457e-12
502 1.2848611654627121e-06 1.1106244523517175e-15 4.0000171863246763e-06 -3.600000343726481e-05 -2.7999994844102559e-05 0.0004942393711459402 -9.8847874229188157e-05 0.00014827181134378242 6.1266116314298304e-12 -1.2253223262859645e-12 1.837983489428945e-12
503 9.6246348924346915e-07 4.6682210574937356e-16 4.000026325432979e-06 -3.6000005265086592e-05 -1.9999992102370081e-05 0.0007033492827456558 -0.00014066985654913111 0.00021100478482369655 2.6925550481125337e-12 -5.3851100962250731e-13 8.0776651443376148e-13
504 1.5979972550073447e-06 2.1366171458920728e-15 4.0000119522758049e-06 -3.6000002390455097e-05 -1.1999996414317245e-05 0.00035638358498851617 -7.1276716997703072e-05 0.00010691507549655503 9.6954940516645841e-12 -1.9390988103329195e-12 2.9086482154993718e-12
505 2.2655647545154752e-06 6.0887488630694645e-15 4.0000063758512552e-06 -3.6000001275170075e-05 -3.9999980872446479e-06 0.0001968416007286182 -3.936832014572355e-05 5.905248021858523e-05 1.7151274961975967e-11 -3.4302549923951946e-12 5.1453824885927931e-12
506 1.0665579286449747e-06 6.3526066945678384e-16 4.0000228178425478e-06 -3.6000004563568532e-05 4.0000068453527604e-06 0.00062822270228737463 -0.0001256445404574747 0.00018846681068621248 3.73898091022238e-12 -7.4779618204447812e-13 1.1216942730667126e-12
507 3.7577212914411749e-06 2.7782563707278941e-14 4.0000024250065438e-06 -3.6000000485001329e-05 1.2000000727501952e-05 7.6583356843100596e-05 -1.5316671368620152e-05 2.2975007052930271e-05 3.270473929529709e-11 -6.5409478590594164e-12 9.8114217885891239e-12
508 2.3041204824334772e-06 6.4049268799159172e-15 4.0000061786717734e-06 -3.6000001235734247e-05 2.0000001853601509e-05 0.00019097697961325302 -3.8195395922650577e-05 5.729309388397577e-05 1.7570463114140116e-11 -3.5140926228280232e-12 5.2711389342420372e-12
509 1.5737601625695356e-06 2.0408649402953571e-15 4.0000122713191552e-06 -3.6000002454263885e-05 2.8000003681395723e-05 0.00036512854728546791 -7.3025709457093848e-05 0.00010953856418564058 9.4187684454169539e-12 -1.8837536890833869e-12 2.8256305336250816e-12
510 1.231767168638469e-06 9.7855332093195267e-16 4.0000183711823769e-06 -3.6000003674236534e-05 3.6000005511354659e-05 0.00052371924367620093 -0.00010474384873524017 0.00015711577310286017 5.5312568380841743e-12 -1.1062513676168353e-12 1.6593770514252533e-12
511 1.5706527587131532e-06 2.0287996751062732e-15 4.0000123130873553e-06 -2.8000002462617464e-05 -3.599999630607376e-05 0.00036627022876613481 -7.3254045753227027e-05 0.00010988106862984073 9.383275232192352e-12 -1.876655046438469e-12 2.8149825696577017e-12
512 3.7694906639840454e-06 2.8044431350897823e-14 4.0000024102803585e-06 -2.8000000482056086e-05 -2.7999999276915867e-05 7.6124512316502743e-05 -1.5224902463300574e-05 2.2837353694950869e-05 3.2823465876173945e-11 -6.5646931752347886e-12 9.8470397628521805e-12
513 1.800436245763949e-06 3.0558488179318682e-15 4.0000096940025314e-06 -2.8000001938800496e-05 -1.9999997091799225e-05 0.00029327537422561009 -5.8655074845121949e-05 8.7982612267683045e-05 1.1994287863911839e-11 -2.3988575727823691e-12 3.5982863591735513e-12
514 3.6293738279527274e-06 2.5031895188387416e-14 4.0000025946633019e-06 -2.8000000518932695e-05 -1.1999999221601016e-05 8.1864035497441982e-05 -1.6372807099488444e-05 2.4559210649232595e-05 3.1407138971816064e-11 -6.2814277943632102e-12 9.4221416915448169e-12
515 2.0641734355339763e-06 4.6050799698040622e-15 4.0000075713058995e-06 -2.8000001514261182e-05 -3.9999977286082239e-06 0.00023207946932037114 -4.641589386407432e-05 6.9623840796111304e-05 1.4941387492706198e-11 -2.9882774985412379e-12 4.4824162478118602e-12
516 2.1154125431781115e-06 4.9565997168167926e-15 4.0000072380694372e-06 -2.8000001447613892e-05 4.0000021714208417e-06 0.00022231203665490931 -4.4462407330981636e-05 6.6693610996472553e-05 1.550694239783865e-11 -3.1013884795677345e-12 4.6520827193515981e-12
517 2.271613521002236e-06 6.137647713547294e-15 4.0000063443147786e-06 -2.8000001268862951e-05 1.200000190329442e-05 0.00019590461571253857 -3.9180923142507729e-05 5.8771384713761462e-05 1.7217119159382402e-11 -3.4434238318764805e-12 5.1651357478147236e-12
518 1.8560623282915526e-06 3.3479293966321533e-15 4.0000091806541674e-06 -2.8000001836130805e-05 2.0000002754196243e-05 0.00027863976383790912 -5.572795276758201e-05 8.3591929151372724e-05 1.2620797556789124e-11 -2.5241595113578216e-12 3.7862392670367373e-12
519 2.9439029800660899e-06 1.3358850876488541e-14 4.0000038868056966e-06 -2.8000000777361133e-05 2.8000001166041689e-05 0.0001217444253959486 -2.4348885079189628e-05 3.652332761878448e-05 2.4369337591529636e-11 -4.8738675183059309e-12 7.3108012774588911e-12
520 1.2842478072225046e-06 1.1090346645879043e-15 4.0000171994193508e-06 -2.8000003439883862e-05 3.6000005159825699e-05 0.00049456878266171346 -9.8913756532342543e-05 0.00014837063479851379 6.119700470590081e-12 -1.2239400941180182e-12 1.8359101411770271e-12
521 2.7523437847330489e-06 1.0917084186380034e-14 4.0000044197077391e-06 -2.0000000883941478e-05 -3.5999998674087565e-05 0.00013801559888442614 -2.7603119776885238e-05 4.1404679665327917e-05 2.2361733234143863e-11 -4.4723466468287738e-12 6.7085199702431571e-12
522 2.4692764516431208e-06 7.8832947828059706e-15 4.0000054274761038e-06 -2.0000001085495238e-05 -2.7999998371757154e-05 0.00016850011553232511 -3.370002310646501e-05 5.0550034659697457e-05 1.9352768539158855e-11 -3.8705537078317711e-12 5.8058305617476595e-12
523 2.8187128491176585e-06 1.1726033429508398e-14 4.0000042234992095e-06 -2.0000000844699847e-05 -1.9999998732950243e-05 0.00013203681367421525 -2.6407362734843112e-05 3.9611044102264623e-05 2.305971929558056e-11 -4.6119438591161112e-12 6.9179157886741656e-12
524 1.3620721778319846e-06 1.3231192506277611e-15 4.0000156400562606e-06 -2.0000003128011273e-05 -1.1999995307983119e-05 0.00045478451818474665 -9.0956903636949557e-05 0.00013643535545542412 7.001178086780888e-12 -1.4002356173561744e-12 2.1003534260342645e-12
525 2.7352361257918362e-06 1.0714775937362391e-14 4.0000044724604648e-06 -2.0000000894492032e-05 -3.9999986582618668e-06 0.00013962064895998641 -2.79241297919974e-05 4.1886194687995961e-05 2.2181381115478201e-11 -4.4362762230956376e-12 6.6544143346434588e-12
526 1.5297265477081881e-06 1.8743040064452174e-15 4.0000128823275152e-06 -2.0000002576465525e-05 4.0000038646982519e-06 0.0003817558074551049 -7.635116149102101e-05 0.00011452674223653151 8.9155755411200159e-12 -1.7831151082240031e-12 2.6746726623360036e-12
527 1.5765956532927387e-06 2.0519160896743917e-15 4.0000122333795398e-06 -2.000000244667592e-05 1.2000003670013848e-05 0.00036409087563132804 -7.2818175126265723e-05 0.00010922726268939867 9.4511531384553201e-12 -1.8902306276910622e-12 2.8353459415365922e-12
528 1.8696614475884163e-06 3.4220593803197355e-15 4.0000090611012132e-06 -2.0000001812220233e-05 2.0000002718330377e-05 0.00027521615287495375 -5.5043230574990783e-05 8.256484586248611e-05 1.2773576003153706e-11 -2.5547152006307405e-12 3.8320728009461103e-12
529 1.6460207572473732e-06 2.335094952815819e-15 4.0000113538014454e-06 -2.0000002270760326e-05 2.8000003406140407e-05 0.00033986417464877103 -6.7972834929754423e-05 0.00010195925239463147 1.0243064593664482e-11 -2.0486129187328933e-12 3.0729193780993402e-12
530 2.158103261725604e-06 5.2627808495847907e-15 4.0000069764529819e-06 -2.000000139529062e-05 3.6000002092935899e-05 0.00021461382617144129 -4.2922765234288222e-05 6.4384147851432404e-05 1.5976404778786208e-11 -3.1952809557572419e-12 4.7929214336358611e-12
531 1.7470189976946614e-06 2.7918463001691137e-15 4.000010226550166e-06 -1.2000002045310041e-05 -3.5999996932034875e-05 0.00030834607692922225 -6.1669215385844192e-05 9.2503823078766552e-05 1.1390365178305088e-11 -2.2780730356610219e-12 3.4171095534915285e-12
532 2.0054094626711535e-06 4.2228708742276197e-15 4.0000079815653435e-06 -1.200000159631305e-05 -2.799999760553033e-05 0.00024404532057049896 -4.8809064114099792e-05 7.3213596171149508e-05 1.4289949527457087e-11 -2.8579899054914174e-12 4.2869848582371299e-12
533 3.7610593341011768e-06 2.7856668555855742e-14 4.0000024208163557e-06 -1.2000000484163294e-05 -1.9999999273755091e-05 7.6452804320319026e-05 -1.5290560864063771e-05 2.2935841296095559e-05 3.2738417012368281e-11 -6.5476834024736575e-12 9.8215251037104912e-12
534 2.1201462378225403e-06 4.9899486336412179e-15 4.0000072083641451e-06 -1.2000001441672836e-05 -1.1999997837490754e-05 0.00022143926718525567 -4.4287853437051238e-05 6.6431780155576793e-05 1.5559075613283291e-11 -3.1118151226566559e-12 4.667722683984985e-12
535 4.3503257433558923e-06 4.3108603488976257e-14 4.0000018214142749e-06 -1.200000036428287e-05 -3.9999994535757209e-06 5.7713485364445088e-05 -1.1542697072888995e-05 1.7314045609333473e-05 3.8635700322807817e-11 -7.7271400645615653e-12 1.1590710096842346e-11
536 2.3953437604434151e-06 7.1961824918300797e-15 4.0000057462167474e-06 -1.2000001149243331e-05 4.0000017238650157e-06 0.00017806320433072953 -3.5612640866145847e-05 5.3418961299218689e-05 1.8557521729118091e-11 -3.711504345823621e-12 5.5672565187354335e-12
537 2.4491371987026541e-06 7.6919768094819951e-15 4.0000055116816633e-06 -1.200000110233632e-05 1.2000001653504484e-05 0.00017103020947689573 -3.4206041895379138e-05 5.1309062843068869e-05 1.9136551344815267e-11 -3.8273102689630537e-12 5.7409654034445765e-12
538 2.9693668582812803e-06 1.370850810720501e-14 4.0000038231889026e-06 -1.200000076463778e-05 2.0000001146956616e-05 0.00011979508187134778 -2.395901637426955e-05 3.593852456140431e-05 2.4634654883501778e-11 -4.9269309767003554e-12 7.3903964650505327e-12
539 1.459401218875512e-06 1.6275065167448242e-15 4.0000139498056854e-06 -1.2000002789961147e-05 2.8000004184941747e-05 0.00041042020997560086 -8.2084041995120416e-05 0.00012312606299268001 8.111536630056829e-12 -1.6223073260113626e-12 2.4334609890170506e-12
540 1.505052195711151e-06 1.785062009826202e-15 4.0000132434658695e-06 -1.200000264869315e-05 3.6000003973039719e-05 0.00039150836834001549 -7.8301673668003266e-05 0.00011745251050200487 8.6334655089610324e-12 -1.7266931017922037e-12 2.5900396526883054e-12
541 3.610137924164622e-06 2.4635989210931308e-14 4.0000026216021641e-06 -4.0000005243204372e-06 -3.5999999213519454e-05 8.270158312082652e-05 -1.654031662416531e-05 2.4810474936248002e-05 3.1212194887926432e-11 -6.242438977585286e-12 9.3636584663779282e-12
542 2.7189384028359704e-06 1.0524385044311448e-14 4.0000045235829275e-06 -4.0000009047165955e-06 -2.7999998642925137e-05 0.00014117512175478223 -2.8235024350956303e-05 4.2352536526434693e-05 2.2009397759047995e-11 -4.4018795518096021e-12 6.6028193277143964e-12
543 3.1785134662051659e-06 1.681399018107577e-14 4.0000033543353132e-06 -4.000000670867061e-06 -1.9999998993699436e-05 0.00010538322374435937 -2.1076644748871886e-05 3.1614967123307693e-05 2.6801333441736365e-11 -5.3602666883472719e-12 8.0404000325209131e-12
544 2.2084995656609857e-06 5.6401489953918352e-15 4.000006684963732e-06 -4.0000013369927459e-06 -1.1999997994510888e-05 0.00020600565685833109 -4.1201131371666211e-05 6.1801697057499151e-05 1.6528595152373212e-11 -3.3057190304746428e-12 4.9585785457119668e-12
545 1.5021822740442205e-06 1.7748698871566339e-15 4.0000132863853677e-06 -4.0000026572770929e-06 -3.999996014084389e-06 0.00039266368095061357 -7.8532736190122304e-05 0.00011779910428518356 8.600650210033714e-12 -1.7201300420067485e-12 2.5801950630101215e-12
546 3.0541579771584814e-06 1.4916712323574041e-14 4.0000036220938432e-06 -4.0000007244187726e-06 4.000001086628156e-06 0.00011362346922333516 -2.2724693844666978e-05 3.4087040767000575e-05 2.5515675083829075e-11 -5.103135016765816e-12 7.6547025251487216e-12
547 2.8720993994627684e-06 1.2405007204344581e-14 4.0000040748512046e-06 -4.0000008149702428e-06 1.2000001222455383e-05 0.00012749789125215722 -2.5499578250431334e-05 3.8249367375646823e-05 2.3619282174346933e-11 -4.7238564348693891e-12 7.0857846523040877e-12
548 2.1373900915930389e-06 5.1126963204944717e-15 4.0000071016390568e-06 -4.0000014203278198e-06 2.0000002130491708e-05 0.00021830078146256176 -4.366015629251252e-05 6.5490234438768703e-05 1.5748821978857276e-11 -3.1497643957714513e-12 4.724646593657178e-12
549 2.1301066277143822e-06 5.060607482411919e-15 4.0000071464355699e-06 -4.0000014292871186e-06 2.8000002143930676e-05 0.00021961865586012913 -4.3923731172025913e-05 6.5885596758038666e-05 1.5668708205256132e-11 -3.1337416410512246e-12 4.7006124615768421e-12
550 1.923228898174009e-06 3.7247021564152152e-15 4.0000086113333234e-06 -4.0000017222666561e-06 3.600000258339998e-05 0.00026228533806181944 -5.2457067612363993e-05 7.8685601418545644e-05 1.337385373822619e-11 -2.6747707476452365e-12 4.0121561214678595e-12
551 2.385726463688879e-06 7.1098520956926196e-15 4.0000057896834908e-06 3.9999988420633154e-06 -3.5999998263095022e-05 0.00017936437292463103 -3.5872874584926227e-05 5.3809311877389385e-05 1.8453768392438476e-11 -3.6907536784876951e-12 5.5361305177315398e-12
552 1.4367560413994121e-06 1.5529151190124251e-15 4.0000143196962888e-06 3.999997136060731e-06 -2.7999995704091136e-05 0.00042023700104798826 -8.4047400209597589e-05 0.00012607110031439617 7.8527724454414659e-12 -1.5705544890882946e-12 2.3558317336324438e-12
553 1.2463798503080883e-06 1.013794382183496e-15 4.0000180344756351e-06 3.9999963931048709e-06 -1.9999994589657343e-05 0.00051540937648534982 -0.00010308187529707004 0.00015462281294560497 5.6944769239052487e-12 -1.1388953847810487e-12 1.7083430771715736e-12
554 2.3947506209599432e-06 7.1908380191206625e-15 4.0000057488836789e-06 3.9999988502232521e-06 -1.199999827533492e-05 0.00017814305886970462 -3.5628611773940797e-05 5.344291766091129e-05 1.855112488905188e-11 -3.71022497781038e-12 5.5653374667155648e-12
555 2.4167439070557439e-06 7.3907841601028341e-15 4.0000056511943078e-06 3.9999988697611309e-06 -3.9999983046417033e-06 0.00017521625536033507 -3.504325107206701e-05 5.2564876608100582e-05 1.8788135372834985e-11 -3.7576270745669963e-12 5.6364406118504913e-12
556 1.9217405183058479e-06 3.7160612465707842e-15 4.0000086233914608e-06 3.9999982753217086e-06 4.0000025870174336e-06 0.0002626330550787486 -5.2526611015749707e-05 7.8789916523624702e-05 1.3357208108761919e-11 -2.6714416217523838e-12 4.0071624326285717e-12
557 2.7739731290359403e-06 1.1176488402328041e-14 4.0000043543144577e-06 3.9999991291371155e-06 1.200000130629435e-05 0.00013602453003182076 -2.7204906006364118e-05 4.0807359009546162e-05 2.2589495799583863e-11 -4.5178991599167734e-12 6.7768487398751581e-12
558 2.6245758885894926e-06 9.4662076423334435e-15 4.0000048372056633e-06 3.9999990325588483e-06 2.0000001451161624e-05 0.0001506903249072785 -3.0138064981455724e-05 4.5207097472183566e-05 2.1010278013590964e-11 -4.2020556027181921e-12 6.3030834040772877e-12
559 1.6708984034341207e-06 2.4425797621204384e-15 4.0000110603452978e-06 3.9999977879309311e-06 2.8000003318103624e-05 0.00033170951909702168 -6.6341903819404417e-05 9.9512855729106409e-05 1.0526256659282511e-11 -2.1052513318565002e-12 3.1578769977847535e-12
560 1.2616992607098776e-06 1.0516377518126157e-15 4.0000176902567351e-06 3.9999964619486562e-06 3.6000005307076943e-05 0.00050685845784405477 -0.0001013716915688107 0.00015205753735321635 5.8661349822870418e-12 -1.1732269964574113e-12 1.7598404946861138e-12
561 1.7232021171781819e-06 2.6792132413795116e-15 4.0000104775228756e-06 1.19999979044954e-05 -3.5999996856743065e-05 0.00031540845894042656 -6.3081691788085436e-05 9.4622537682127842e-05 1.1120419023661174e-11 -2.2240838047322326e-12 3.3361257070983545e-12
562 2.3012717469100002e-06 6.3811997438920895e-15 4.000006192933766e-06 1.1999998761413273e-05 -2.7999998142119878e-05 0.00019140166182561607 -3.828033236512306e-05 5.7420498547684895e-05 1.753953230252345e-11 -3.5079064605046923e-12 5.2618596907570311e-12
563 1.1813872211961167e-06 8.6332720981030822e-16 4.000019597834167e-06 1.1999996080433157e-05 -1.9999994120649779e-05 0.00055353131694980192 -0.00011070626338995981 0.00016605939508494057 4.9731260467283625e-12 -9.9462520934567885e-13 1.4919378140185083e-12
564 1.9349573283519722e-06 3.7932616313363384e-15 4.0000085171600572e-06 1.1999998296567993e-05 -1.1999997444851987e-05 0.00025956771491610368 -5.191354298322076e-05 7.7870314474830831e-05 1.350495429831495e-11 -2.7009908596629901e-12 4.0514862894944896e-12
565 3.8948010612234226e-06 3.093530920990236e-14 4.0000022614019386e-06 1.1999999547719602e-05 -3.9999993215794165e-06 7.148137507360297e-05 -1.4296275014720615e-05 2.1444412522080867e-05 3.4084986870300397e-11 -6.8169973740600779e-12 1.022549606109012e-11
566 1.9086665672310375e-06 3.6407329248260962e-15 4.0000087303637142e-06 1.1999998253927269e-05 4.0000026191091047e-06 0.00026571526520144281 -5.3143053040288561e-05 7.971457956043296e-05 1.3210910671491719e-11 -2.6421821342983437e-12 3.9632732014475129e-12
567 1.8900586958378783e-06 3.5352855371486602e-15 4.0000088859399293e-06 1.1999998222812012e-05 1.2000002665781983e-05 0.0002701898183164272 -5.4037963663285499e-05 8.1056945494928259e-05 1.3002436050104316e-11 -2.6004872100208629e-12 3.9007308150312928e-12
568 1.3084070256131235e-06 1.1728088234056749e-15 4.0000166936342821e-06 1.1999996661273132e-05 2.0000005008090315e-05 0.00048178722309518719 -9.6357444619037225e-05 0.00014453616692855639 6.3924131169258178e-12 -1.2784826233851661e-12 1.9177239350777424e-12
569 2.0354600836362755e-06 4.4155661212513338e-15 4.0000077678518125e-06 1.1999998446429623e-05 2.800000233035554e-05 0.0002378202113177899 -4.7564042263558004e-05 7.1346063395336836e-05 1.4623459034505755e-11 -2.9246918069011504e-12 4.3870377103517289e-12
570 1.5133682231903628e-06 1.8148153933561269e-15 4.0000131201878431e-06 1.199999737596243e-05 3.6000003936056289e-05 0.00038818553935908646 -7.7637107871817126e-05 0.00011645566180772578 8.728550978641223e-12 -1.745710195728247e-12 2.6185652935923689e-12
571 1.8697896316236571e-06 3.4227632780048641e-15 4.0000090599849703e-06 1.9999998188003035e-05 -3.599999728200461e-05 0.0002751841609273527 -5.5036832185470578e-05 8.2555248278206017e-05 1.2775015342048064e-11 -2.5550030684096114e-12 3.8325046026144137e-12
572 2.0514596622858035e-06 4.520511391253337e-15 4.0000076574332683e-06 1.9999998468513323e-05 -2.7999997702770014e-05 0.00023459693798289763 -4.6919387596579577e-05 7.0379081394869304e-05 1.4800703399754918e-11 -2.9601406799509833e-12 4.4402110199264751e-12
573 1.8576876458299451e-06 3.3567322498180224e-15 4.0000091662467952e-06 1.9999998166750656e-05 -1.9999997250125973e-05 0.0002782274851966367 -5.564549703932719e-05 8.3468245558990874e-05 1.2639065206886496e-11 -2.5278130413773013e-12 3.7917195620659508e-12
574 2.6255362160544729e-06 9.4766024484681289e-15 4.0000048338547798e-06 1.9999999033229078e-05 -1.1999998549843575e-05 0.00015058885224850506 -3.0117770449700942e-05 4.5176655674551453e-05 2.1020475535646707e-11 -4.2040951071293423e-12 6.306142660694013e-12
575 1.6323522235758601e-06 2.2774048845768927e-15 4.0000115197468152e-06 1.9999997696050609e-05 -3.9999965440759509e-06 0.00034445968211845935 -6.8891936423691913e-05 0.00010333790463553761 1.0087327024140942e-11 -2.0174654048281879e-12 3.0261981072422836e-12
576 2.5663253268956815e-06 8.8498060373917861e-15 4.0000050470228513e-06 1.9999998990595389e-05 4.0000015141068668e-06 0.00015703581042111355 -3.1407162084222657e-05 4.7110743126334077e-05 2.0390555469728884e-11 -4.0781110939457784e-12 6.1171666409186643e-12
577 2.0004091732318868e-06 4.1913616420349717e-15 4.000008017950318e-06 1.9999998396409921e-05 1.2000002405385085e-05 0.0002451033763378805 -4.9020675267576049e-05 7.3531012901363949e-05 1.4234378171656396e-11 -2.8468756343312799e-12 4.2703134514969232e-12
578 2.1712065335284511e-06 5.3592255325054713e-15 4.0000068989108163e-06 1.9999998620217805e-05 2.0000002069673261e-05 0.00021232705243032395 -4.2465410486064885e-05 6.369811572909723e-05 1.6120184886553085e-11 -3.2240369773106151e-12 4.836055465965924e-12
579 2.2545429639890468e-06 6.0003166551295257e-15 4.0000064339067392e-06 1.9999998713218634e-05 2.8000001930172018e-05 0.00019856550754688039 -3.9713101509376097e-05 5.9569652264064068e-05 1.7031219118720336e-11 -3.4062438237440672e-12 5.109365735616101e-12
580 1.8733235513436507e-06 3.442207143712262e-15 4.0000090292893273e-06 1.9999998194142106e-05 3.6000002708786755e-05 0.00027430420344642015 -5.4860840689284124e-05 8.2291261033926505e-05 1.281469119539328e-11 -2.5629382390786542e-12 3.844407358617975e-12
581 1.8444723101516189e-06 3.2856026627767721e-15 4.0000092843413365e-06 2.7999998143131764e-05 -3.5999997214697617e-05 0.00028160440835915988 -5.6320881671831913e-05 8.4481322507747917e-05 1.2490468778793043e-11 -2.4980937557586089e-12 3.7471406336379124e-12
582 1.1322030045607227e-06 7.5992639861598709e-16 4.0000209007183287e-06 2.7999995819856274e-05 -2.7999993729784513e-05 0.00058438664738932856 -0.00011687732947786568 0.00017531599421679849 4.4368580644040622e-12 -8.8737161288081267e-13 1.331057419321219e-12
583 1.4604642454536118e-06 1.6310655308616401e-15 4.0000139327689695e-06 2.7999997213446199e-05 -1.9999995820169326e-05 0.00040996661629863756 -8.199332325972747e-05 0.00012298998488959116 8.123687106093926e-12 -1.6247374212187859e-12 2.4371061318281781e-12
584 2.7029587066715359e-06 1.0339912301875761e-14 4.0000045745478394e-06 2.7999999085090453e-05 -1.1999998627635644e-05 0.00014272384545785383 -2.854476909157074e-05 4.2817153637356113e-05 2.1840607822415038e-11 -4.3681215644830091e-12 6.5521823467245108e-12
585 2.332554782511242e-06 6.6449876713325363e-15 4.0000060389106145e-06 2.7999998792217882e-05 -3.9999981883268027e-06 0.00018681121085831212 -3.7362242171662422e-05 5.6043363257493779e-05 1.7878836980827079e-11 -3.5757673961654156e-12 5.3636510942481179e-12
586 1.6590233105008802e-06 2.3908706845368042e-15 4.0000111990654362e-06 2.7999997760186921e-05 4.0000033597196339e-06 0.00033556876956822388 -6.7113753913644654e-05 0.00010067063087046696 1.0391121407980724e-11 -2.0782242815961471e-12 3.1173364223942212e-12
587 1.4889095695189086e-06 1.7282381429958227e-15 4.0000134874219606e-06 2.7999997302515572e-05 1.2000004046226594e-05 0.0003980646190051399 -7.9612923801027736e-05 0.00011941938570154225 8.4488875723202246e-12 -1.6897775144640483e-12 2.5346662716960637e-12
588 2.0558755716215779e-06 4.549766418210288e-15 4.0000076273581658e-06 2.7999998474528359e-05 2.0000002288207426e-05 0.00023371818180768485 -4.6743636361536867e-05 7.0115454542305489e-05 1.4849583628760018e-11 -2.9699167257520058e-12 4.4548750886280046e-12
589 2.0038760753973695e-06 4.2131915344278067e-15 4.000007992697701e-06 2.7999998401460478e-05 2.8000002397809347e-05 0.00024436909891555547 -4.8873819783111069e-05 7.3310729674666759e-05 1.4272910362608713e-11 -2.8545820725217428e-12 4.2818731087826119e-12
590 2.4007472412335303e-06 7.2449924584934111e-15 4.0000057220042911e-06 2.7999998855599087e-05 3.6000001716601214e-05 0.000177338101133863 -3.5467620226772621e-05 5.3201430340158807e-05 1.8615784241270644e-11 -3.7231568482541281e-12 5.5847352723811946e-12
591 1.924193008269751e-06 3.7303065180616515e-15 4.0000086035355271e-06 3.599999827929282e-05 -3.599999741893931e-05 0.00026206044485688586 -5.2412088971377099e-05 7.8618133457065764e-05 1.3384635059177553e-11 -2.6769270118355117e-12 4.0153905177532656e-12
592 2.5030501723227762e-06 8.2112124152963584e-15 4.0000052904397856e-06 3.5999998941911983e-05 -2.7999998412868105e-05 0.00016437697343383599 -3.2875394686767142e-05 4.9313092030150902e-05 1.9714695531312985e-11 -3.9429391062625998e-12 5.9144086593938928e-12
593 1.1000323289844425e-06 6.9697141864977947e-16 4.0000218136403417e-06 3.5999995637271933e-05 -1.9999993455907887e-05 0.00060549743551747428 -0.00012109948710349453 0.00018164923065524185 4.091931314077361e-12 -8.1838626281547587e-13 1.2275793942232125e-12
594 1.9400285409203075e-06 3.8231644546681045e-15 4.0000084769003237e-06 3.599999830461985e-05 -1.1999997456929896e-05 0.00025840484346726359 -5.1680968693452892e-05 7.7521453040179243e-05 1.3561603506058723e-11 -2.7123207012117411e-12 4.0684810518176137e-12
595 1.7827498021139047e-06 2.9666739152174726e-15 4.0000098658455569e-06 3.5999998026830814e-05 -3.9999970402463291e-06 0.0002981509523611337 -5.9630190472226773e-05 8.9445285708340431e-05 1.1794569955818615e-11 -2.3589139911637231e-12 3.5383709867455795e-12
596 1.3567163883097121e-06 1.3075726723308834e-15 4.0000157410655646e-06 3.5999996851786845e-05 4.0000047223196624e-06 0.000457395258726198 -9.14790517452396e-05 0.00013721857761785951 6.9402724672302461e-12 -1.3880544934460494e-12 2.0820817401690725e-12
597 1.6638175866709607e-06 2.4116581877227832e-15 4.0000111427652475e-06 3.599999777144702e-05 1.2000003342829567e-05 0.00033400343641619673 -6.6800687283238944e-05 0.00010020103092485867 1.0445688755744194e-11 -2.0891377511488453e-12 3.1337066267232628e-12
598 1.8156408155214019e-06 3.1339238074537218e-15 4.0000095496787805e-06 3.599999809006427e-05 2.0000002864903612e-05 0.00028917138176052593 -5.7834276352105122e-05 8.6751414528157619e-05 1.2165783402598435e-11 -2.4331566805196884e-12 3.6497350207795328e-12
599 1.444998554038245e-06 1.5797954542396633e-15 4.0000141835062268e-06 3.5999997163298763e-05 2.800000425505186e-05 0.00041662953962704407 -8.3325907925409001e-05 0.0001249888618881137 7.9469409556926608e-12 -1.5893881911385287e-12 2.3840822867077898e-12
600 1.6859595680796564e-06 2.5092277878839792e-15 4.0000108878886901e-06 3.5999997822422215e-05 3.6000003266366589e-05 0.00032690061404318287 -6.5380122808636254e-05 9.8070184212954286e-05 1.0697527929859611e-11 -2.1395055859719275e-12 3.2092583789578919e-12
601 3.4506948964502302e-06 2.1513858452926487e-14 1.2000002861799211e-05 -3.6000000572359848e-05 -3.5999999141460247e-05 9.0158031656067104e-05 -1.8031606331213405e-05 2.7047409496820117e-05 2.959130860164692e-11 -5.9182617203293849e-12 8.8773925804940761e-12
602 1.6398580828632407e-06 2.3089653560372458e-15 1.2000011428198935e-05 -3.6000002285639865e-05 -2.7999996571540298e-05 0.00034192587401026214 -6.8385174802052461e-05 0.00010257776220307856 1.0172859841665957e-11 -2.0345719683331906e-12 3.051857952499787e-12
603 2.1588632945292976e-06 5.2683430879434169e-15 1.2000006971920718e-05 -3.6000001394384175e-05 -1.9999997908423788e-05 0.0002144802300560176 -4.2896046011203532e-05 6.4344069016805325e-05 1.598474851327265e-11 -3.1969497026545307e-12 4.795424553981793e-12
604 2.3698072387015817e-06 6.9684740557522943e-15 1.2000005862697447e-05 -3.6000001172539565e-05 -1.1999998241190738e-05 0.00018154843288542048 -3.6309686577084242e-05 5.4464529865625977e-05 1.8281870785132289e-11 -3.6563741570264543e-12 5.4845612355396895e-12
605 1.4423431998869217e-06 1.5711022708228871e-15 1.2000014227183849e-05 -3.6000002845436839e-05 -3.9999957318448583e-06 0.00041778737972052572 -8.3557475944105226e-05 0.00012533621391615788 7.9166017357570466e-12 -1.5833203471514086e-12 2.3749805207271112e-12
606 1.7545879505223828e-06 2.8282907292691341e-15 1.2000010148586964e-05 -3.600000202971729e-05 4.0000030445760809e-06 0.00030614696228941507 -6.122939245788297e-05 9.1844088686824347e-05 1.1476068264823074e-11 -2.2952136529646153e-12 3.4428204794469221e-12
607 2.8430379506299117e-06 1.2032242971177139e-14 1.2000004154793717e-05 -3.6000000830958716e-05 1.2000001246438074e-05 0.00012993991582463702 -2.5987983164927363e-05 3.8981974747391023e-05 2.331488371138028e-11 -4.6629767422760582e-12 6.9944651134140849e-12
608 1.0549589890572629e-06 6.1475964810362702e-16 1.200002317924318e-05 -3.6000004635848706e-05 2.0000006953772927e-05 0.00063627185315856831 -0.00012725437063171332 0.00019088155594756972 3.6182883212850694e-12 -7.2365766425701718e-13 1.0854864963855279e-12
609 1.9012794652892235e-06 3.598624192216461e-15 1.2000008791652572e-05 -3.600000175833059e-05 2.8000002637495799e-05 0.00026747915046098432 -5.349583009219692e-05 8.0243745138295342e-05 1.3128184157324134e-11 -2.6256368314648255e-12 3.9384552471972389e-12
610 1.1136621929467034e-06 7.2320105536290511e-16 1.2000021420772799e-05 -3.6000004284154514e-05 3.6000006426231828e-05 0.00059646473408946641 -0.00011929294681789313 0.00017893942022684052 4.2374356209712129e-12 -8.4748712419424441e-13 1.2712306862913575e-12
611 2.1439200158135483e-06 5.1596989046968676e-15 1.2000007061823371e-05 -2.8000001412364681e-05 -3.5999997881453005e-05 0.00021712879058648129 -4.3425758117296261e-05 6.5138637175944262e-05 1.5820608364467409e-11 -3.1641216728934818e-12 4.7461825093402243e-12
612 2.5593558817565079e-06 8.7779006317309131e-15 1.2000005073018622e-05 -2.8000001014603769e-05 -2.7999998478094351e-05 0.0001578208629433696 -3.1564172588674043e-05 4.7346258883011013e-05 2.0316251549930772e-11 -4.0632503099861523e-12 6.0948754649792281e-12
613 2.8974135624363379e-06 1.2735913135162894e-14 1.2000004007052601e-05 -2.8000000801410512e-05 -1.9999998797884165e-05 0.00012542500295352645 -2.5085000590705271e-05 3.7627500886057753e-05 2.3884039120415601e-11 -4.7768078240831213e-12 7.1652117361246839e-12
614 3.2812800357534527e-06 1.8498159114880627e-14 1.200000315458897e-05 -2.8000000630917837e-05 -1.1999999053623307e-05 9.9219202968358971e-05 -1.9843840593671746e-05 2.9765760890507641e-05 2.7858404030871063e-11 -5.5716808061742134e-12 8.3575212092613189e-12
615 1.8826138560824754e-06 3.4936739741900409e-15 1.2000008949303482e-05 -2.8000001789860726e-05 -3.9999973152089583e-06 0.00027200947352085575 -5.4401894704171166e-05 8.1602842056256993e-05 1.2918944652657829e-11 -2.583788930531566e-12 3.875683395797344e-12
616 1.2771193735826675e-06 1.0906693319395214e-15 1.200001735259369e-05 -2.8000003470518763e-05 4.0000052057781242e-06 0.00049841611360959483 -9.9683222721918776e-05 0.00014952483408287801 6.0394306548397112e-12 -1.2078861309679445e-12 1.8118291964519181e-12
617 2.0295053122344968e-06 4.3769259541282762e-15 1.2000007809537134e-05 -2.8000001561907467e-05 1.2000002342861148e-05 0.00023903583176997605 -4.7807166353995308e-05 7.1710749530992803e-05 1.4557434381276697e-11 -2.9114868762553378e-12 4.3672303143830092e-12
618 2.2506981785209035e-06 5.9696710510759673e-15 1.2000006454340037e-05 -2.8000001290868013e-05 2.0000001936302052e-05 0.00019917195201151901 -3.9834390402303752e-05 5.975158560345555e-05 1.6989315829879829e-11 -3.3978631659759673e-12 5.0967947489639515e-12
619 2.6805778173897238e-06 1.0085185258886261e-14 1.2000004647361389e-05 -2.8000000929472268e-05 2.8000001394208431e-05 0.00014493484863535057 -2.8986969727070196e-05 4.3480454590605485e-05 2.1603929566687668e-11 -4.320785913337532e-12 6.4811788700062923e-12
620 2.3782485840564065e-06 7.043205546296281e-15 1.200000582381425e-05 -2.8000001164762822e-05 3.6000001747144334e-05 0.00018038557283283987 -3.6077114566567862e-05 5.4115671849851997e-05 1.8373045973373855e-11 -3.6746091946747721e-12 5.5119137920121546e-12
621 3.4954004075955348e-06 2.2360907235428762e-14 1.2000002791259279e-05 -2.0000000558251895e-05 -3.5999999162622328e-05 8.7970394028961152e-05 -1.7594078805792192e-05 2.6391118208688272e-05 3.0046714575806039e-11 -6.0093429151612109e-12 9.0140143727418143e-12
622 2.2898035604619018e-06 6.286273921768793e-15 1.2000006250837574e-05 -2.0000001250167513e-05 -2.7999998124748706e-05 0.00019312508415699449 -3.862501683139897e-05 5.7937525247098505e-05 1.741494721535582e-11 -3.4829894430711636e-12 5.2244841646067425e-12
623 1.585409112900588e-06 2.0865205809734983e-15 1.2000012116501498e-05 -2.0000002423300277e-05 -1.9999996365049524e-05 0.0003608903655857148 -7.2178073117143171e-05 0.00010826710967571457 9.5517961092323711e-12 -1.9103592218464716e-12 2.8655388327697088e-12
624 2.1771829726228739e-06 5.4036026955568356e-15 1.2000006863959588e-05 -2.0000001372791951e-05 -1.1999997940812072e-05 0.00021129556299775219 -4.2259112599550543e-05 6.3388668899325615e-05 1.6185714677741012e-11 -3.2371429355482001e-12 4.8557144033223033e-12
625 1.4751331921772579e-06 1.6807082351300806e-15 1.2000013700597159e-05 -2.0000002740119402e-05 -3.9999958898208542e-06 0.0004037725390084524 -8.0754507801690365e-05 0.0001211317617025356 8.2913761317197987e-12 -1.6582752263439614e-12 2.4874128395159412e-12
626 1.8557182185005519e-06 3.3460676460452178e-15 1.2000009183708656e-05 -2.0000001836741705e-05 4.0000027551126077e-06 0.00027872715959740223 -5.5745431919480402e-05 8.3618147879220721e-05 1.2616929675411378e-11 -2.523385935082277e-12 3.7850789026234122e-12
627 1.5384810484140655e-06 1.9066679867312237e-15 1.2000012757505044e-05 -2.0000002551501021e-05 1.2000003827251514e-05 0.00037837196491910226 -7.5674392983820474e-05 0.00011351158947573081 9.0156510358261859e-12 -1.8031302071652377e-12 2.7046953107478534e-12
628 1.6752824148070335e-06 2.4618563701690198e-15 1.2000011009748797e-05 -2.0000002201949748e-05 2.0000003302924647e-05 0.00033029992252604383 -6.6059984505208597e-05 9.9089976757813398e-05 1.057612457046539e-11 -2.1152249140930803e-12 3.1728373711396132e-12
629 1.5089980048114637e-06 1.7991385902773526e-15 1.2000013184771876e-05 -2.0000002636954408e-05 2.8000003955431549e-05 0.00038992714953790277 -7.7985429907580366e-05 0.00011697814486137037 8.6785823196737542e-12 -1.7357164639347536e-12 2.6035746959021322e-12
630 1.2674680798276089e-06 1.0661288964366258e-15 1.2000017562911241e-05 -2.0000003512582225e-05 3.6000005268873317e-05 0.00050368082438405587 -0.00010073616487681129 0.0001511042473152171 5.930909618287355e-12 -1.1861819236574695e-12 1.7792728854862019e-12
631 4.1852798673765031e-06 3.8385936038588571e-14 1.2000001964804261e-05 -1.2000000392960856e-05 -3.5999999410558765e-05 6.2207877997133082e-05 -1.2441575599426605e-05 1.8662363399139955e-05 3.6992710889447293e-11 -7.3985421778894592e-12 1.1097813266834185e-11
632 3.4026884926365044e-06 2.0628383628463891e-14 1.2000002940532368e-05 -1.2000000588106466e-05 -2.7999999117840274e-05 9.2597661137574979e-05 -1.8519532227515061e-05 2.7779298341272523e-05 2.9101428900404979e-11 -5.8202857800809949e-12 8.7304286701214936e-12
633 1.9619882420170431e-06 3.9544657955121014e-15 1.2000008305696373e-05 -1.2000001661139261e-05 -1.9999997508291099e-05 0.0002534526192852478 -5.0690523857049391e-05 7.6035785785574331e-05 1.380665174691917e-11 -2.7613303493838374e-12 4.1419955240757514e-12
634 2.7830278978122666e-06 1.1286292510442053e-14 1.2000004327361444e-05 -1.2000000865472311e-05 -1.1999998701791579e-05 0.00013520341933523795 -2.7040683867047635e-05 4.0561025800571328e-05 2.2684760210431256e-11 -4.5369520420862503e-12 6.8054280631293767e-12
635 3.0722812185166237e-06 1.518383655268769e-14 1.2000003581143988e-05 -1.2000000716228809e-05 -3.9999989256568097e-06 0.00011236492049649767 -2.2472984099299522e-05 3.3709476148949355e-05 2.5703509953751213e-11 -5.1407019907502443e-12 7.7110529861253624e-12
636 2.133843782788414e-06 5.0872899141307375e-15 1.2000007123399301e-05 -1.2000001424679853e-05 4.0000021370197759e-06 0.00021894104451612151 -4.3788208903224351e-05 6.5682313354836395e-05 1.5709820410426346e-11 -3.141964082085268e-12 4.7129461231279039e-12
637 1.1917671705396575e-06 8.8628393185186405e-16 1.2000019336482702e-05 -1.2000003867296547e-05 1.200000580094482e-05 0.00054724080405886869 -0.00010944816081177374 0.00016417224121765983 5.0874699557953117e-12 -1.0174939911590625e-12 1.5262409867386018e-12
638 3.1335288231226658e-06 1.6110154439131348e-14 1.2000003447707382e-05 -1.2000000689541515e-05 2.0000001034312167e-05 0.00010825968247837698 -2.1651936495675499e-05 3.2477904743513209e-05 2.6337109161838887e-11 -5.2674218323677733e-12 7.9011327485516611e-12
639 1.7345694463313866e-06 2.7325851191334661e-15 1.2000010356656042e-05 -1.2000002071331213e-05 2.8000003106996847e-05 0.00031201046995320579 -6.2402093990641459e-05 9.3603140985961842e-05 1.1249309102241333e-11 -2.2498618204482611e-12 3.3747927306723971e-12
640 1.4850063451497453e-06 1.7146818476639292e-15 1.200001354734889e-05 -1.2000002709469795e-05 3.6000004064204662e-05 0.00039967119782766234 -7.9934239565532462e-05 0.00011990135934829872 8.4042586180320147e-12 -1.6808517236064031e-12 2.5212775854096033e-12
641 1.8062095603846166e-06 3.0853400196861704e-15 1.2000009638835854e-05 -4.0000019277671769e-06 -3.5999997108349174e-05 0.00029170764467166945 -5.8341528934333936e-05 8.7512293401500983e-05 1.2059427913470146e-11 -2.4118855826940277e-12 3.6178283740410408e-12
642 1.7806415549444878e-06 2.9561613547496412e-15 1.2000009886619621e-05 -4.0000019773239296e-06 -2.7999997034014144e-05 0.00029873955089048851 -5.9747910178097708e-05 8.9621865267146522e-05 1.1770747152797916e-11 -2.354149430559584e-12 3.5312241458393764e-12
643 1.3982390134219878e-06 1.4313402005530726e-15 1.2000014980643218e-05 -4.0000029961286475e-06 -1.999999550580704e-05 0.00043762805091896855 -8.7525610183793425e-05 0.0001312884152756901 7.4131222695014222e-12 -1.4826244539002882e-12 2.223936680850432e-12
644 1.4838064349555137e-06 1.7105287296300643e-15 1.2000013565845809e-05 -4.0000027131691633e-06 -1.1999995930246275e-05 0.00040016676724899695 -8.0033353449799442e-05 0.00012005003017469899 8.3905392172752412e-12 -1.6781078434550473e-12 2.5171617651825729e-12
645 1.4019109619995312e-06 1.4426464694653903e-15 1.2000014915841803e-05 -4.0000029831683734e-06 -3.9999955252474662e-06 0.00043593155115993483 -8.718631023198664e-05 0.00013077946534798045 7.4550006134697578e-12 -1.4910001226939554e-12 2.2365001840409259e-12
646 2.7577288362951366e-06 1.0981288548495967e-14 1.2000004403292189e-05 -4.0000008806584356e-06 4.0000013209876526e-06 0.0001375159317032908 -2.7503186340658192e-05 4.1254779510987322e-05 2.2418466013905913e-11 -4.483693202781182e-12 6.7255398041717702e-12
647 2.8735622213342159e-06 1.2423971269169051e-14 1.2000004070887413e-05 -4.0000008141774945e-06 1.2000001221266192e-05 0.0001273767478747753 -2.5475349574954991e-05 3.8213024362432639e-05 2.3634591452947302e-11 -4.7269182905894619e-12 7.0903774358841884e-12
648 1.1337655814464565e-06 7.6307711361092717e-16 1.2000020857632038e-05 -4.0000041715264181e-06 2.0000006257289613e-05 0.00058337983569997491 -0.00011667596713999484 0.00017501395070999219 4.4537390767144827e-12 -8.9074781534289796e-13 1.3361217230143472e-12
649 2.6005051115103119e-06 9.2081366905651971e-15 1.2000004922324318e-05 -4.0000009844648644e-06 2.8000001476697267e-05 0.00015326652797036672 -3.0653305594073321e-05 4.5979958391109883e-05 2.0754472149937701e-11 -4.1508944299875405e-12 6.2263416449813123e-12
650 2.5996504737424719e-06 9.1990611052031702e-15 1.2000004925386828e-05 -4.0000009850773793e-06 3.6000001477616079e-05 0.00015335916845252907 -3.0671833690505829e-05 4.6007750535758748e-05 2.0745382487881523e-11 -4.149076497576305e-12 6.2236147463644539e-12
651 3.4336929220446931e-06 2.1197418885871424e-14 1.200000288932184e-05 3.9999994221356342e-06 -3.5999999133203539e-05 9.1011101684532729e-05 -1.8202220336906502e-05 2.7303330505359855e-05 2.9417914405161185e-11 -5.8835828810322383e-12 8.8253743215483543e-12
652 1.4694254835805825e-06 1.6612742150223665e-15 1.200001379029211e-05 3.9999972419415731e-06 -2.7999995862912415e-05 0.00040616828212037393 -8.1233656424074967e-05 0.00012185048463611236 8.2261237557945071e-12 -1.6452247511588985e-12 2.4678371267383492e-12
653 2.5791745543519278e-06 8.9834018821657037e-15 1.200000499960603e-05 3.9999990000787779e-06 -1.9999998500118159e-05 0.00015560321385094813 -3.1120642770189715e-05 4.6680964155284542e-05 2.0527457409700261e-11 -4.1054914819400503e-12 6.1582372229100747e-12
654 1.391882572078149e-06 1.4119080467680361e-15 1.2000015093737824e-05 3.9999969812524402e-06 -1.1999995471878643e-05 0.00044058437668619699 -8.8116875337239522e-05 0.00013217531300585908 7.3406485202284387e-12 -1.4681297040456858e-12 2.2021945560685311e-12
655 1.3694490441080422e-06 1.3447335922042099e-15 1.2000015502374724e-05 3.999996899525039e-06 -3.999995349287581e-06 0.00045121850052968717 -9.0243700105937602e-05 0.00013536555015890623 7.0851124484849857e-12 -1.4170224896969955e-12 2.1255337345454945e-12
656 3.2800008471717314e-06 1.8476533337636289e-14 1.2000003156965846e-05 3.9999993686068179e-06 4.000000947089749e-06 9.9292635417804552e-05 -1.9858527083561e-05 2.9787790625341435e-05 2.7845274567141299e-11 -5.5690549134282574e-12 8.3535823701423849e-12
657 2.2304462331333752e-06 5.8099701119914596e-15 1.2000006563548389e-05 3.9999986872903153e-06 1.200000196906453e-05 0.00020241047602023 -4.0482095204045971e-05 6.0723142806069e-05 1.676839263968577e-11 -3.3536785279371546e-12 5.0305177919057301e-12
658 1.2233113338889491e-06 9.585386314308182e-16 1.2000018569842797e-05 3.9999962860314377e-06 2.0000005570952816e-05 0.00052859674145607166 -0.00010571934829121428 0.00015857902243682166 5.4370581785713265e-12 -1.0874116357142659e-12 1.6311174535713957e-12
659 1.8673918705941435e-06 3.4096124159034376e-15 1.200000908089744e-05 3.9999981838205129e-06 2.8000002724269205e-05 0.00027578344694337699 -5.5156689388675572e-05 8.2735034083013213e-05 1.2748089341042566e-11 -2.5496178682085101e-12 3.8244268023127678e-12
660 3.0071207501747442e-06 1.4238073306244946e-14 1.2000003731662781e-05 3.9999992536674429e-06 3.6000001119498755e-05 0.00011698796229229657 -2.3397592458459333e-05 3.509638868768902e-05 2.5027394242093665e-11 -5.0054788484187343e-12 7.5082182726280999e-12
661 1.6642171104568357e-06 2.413395901398951e-15 1.2000011138091695e-05 1.1999997772381644e-05 -3.5999996658572436e-05 0.0003338734367042254 -6.6774687340845313e-05 0.00010016203101126766 1.045023544841697e-11 -2.0900470896833904e-12 3.1350706345250896e-12
662 1.9710911743613799e-06 4.0097635387422947e-15 1.200000823618877e-05 1.1999998352762241e-05 -2.7999997529143428e-05 0.00025143876006659033 -5.0287752013318216e-05 7.543162801997728e-05 1.3908108127606877e-11 -2.7816216255213727e-12 4.1724324382820589e-12
663 1.512648996875863e-06 1.8122291567603565e-15 1.2000013130786293e-05 1.1999997373842722e-05 -1.9999996060764172e-05 0.00038847146660959795 -7.7694293321919683e-05 0.00011654143998287929 8.7203274944140494e-12 -1.7440654988828089e-12 2.616098248324216e-12
664 2.4751093625083842e-06 7.9392924751933601e-15 1.2000005403439969e-05 1.1999998919311993e-05 -1.1999998378967999e-05 0.00016777742433575439 -3.3555484867150912e-05 5.0333227300726317e-05 1.9415335136963562e-11 -3.8830670273927131e-12 5.824600541089068e-12
665 2.1560559167326498e-06 5.2478170018888879e-15 1.2000006988683124e-05 1.1999998602263351e-05 -3.9999979033950658e-06 0.00021497429172487811 -4.2994858344975536e-05 6.449228751746347e-05 1.5953926306944868e-11 -3.1907852613889753e-12 4.7861778920834592e-12
666 1.3361534621574287e-06 1.2490149777032307e-15 1.2000016137252838e-05 1.1999996772549419e-05 4.000004841175827e-06 0.00046759062024434226 -9.351812404886857e-05 0.00014027718607330272 6.7067176394280992e-12 -1.3413435278856182e-12 2.0120152918284288e-12
667 2.1218629452801571e-06 5.0020797121085e-15 1.2000007197635043e-05 1.1999998560472992e-05 1.2000002159290489e-05 0.00022112395328371557 -4.4224790656743143e-05 6.6337185985114569e-05 1.5577977291212022e-11 -3.1155954582424036e-12 4.6733931873636077e-12
668 2.8873796437445505e-06 1.2604055107376053e-14 1.2000004033725718e-05 1.1999999193254869e-05 2.0000001210117732e-05 0.00012624071148372253 -2.524814229674451e-05 3.7872213445116548e-05 2.3779139047854804e-11 -4.7558278095709614e-12 7.1337417143564462e-12
669 1.8929975426603826e-06 3.5518022081705935e-15 1.2000008861104865e-05 1.1999998227779023e-05 2.8000002658331423e-05 0.0002694761765412489 -5.3895235308249555e-05 8.0842852962374555e-05 1.3035381277500187e-11 -2.6070762555000407e-12 3.9106143832500588e-12
670 1.7349636617664525e-06 2.7344486456825208e-15 1.2000010352500158e-05 1.1999997929499964e-05 3.600000310575002e-05 0.00031189352699668066 -6.2378705399336102e-05 9.3568058099004146e-05 1.1253777343020474e-11 -2.2507554686040955e-12 3.3761332029061431e-12
671 2.2742487082126026e-06 6.1590324522160875e-15 1.2000006330646841e-05 1.9999998733870565e-05 -3.5999998100806023e-05 0.00019549840886429586 -3.9099681772859081e-05 5.864952265928855e-05 1.7245795242949726e-11 -3.4491590485899471e-12 5.1737385728849207e-12
672 1.3630168370867784e-06 1.3258740912153588e-15 1.2000015622332075e-05 1.9999996875533611e-05 -2.7999995313300363e-05 0.00045432593345279975 -9.0865186690559582e-05 0.00013629778003583975 7.0119236029752385e-12 -1.4023847205950524e-12 2.1035770808925735e-12
673 3.3895062486167845e-06 2.0389563990236157e-14 1.2000002962714243e-05 1.9999999407457128e-05 -1.9999999111185738e-05 9.3284591218803958e-05 -1.8656918243760771e-05 2.7985377365641028e-05 2.8966753692241781e-11 -5.7933507384483555e-12 8.6900261076725381e-12
674 1.723071895882096e-06 2.6786058879195919e-15 1.2000010478919106e-05 1.9999997904216101e-05 -1.1999996856324261e-05 0.00031544767723384529 -6.3089535446768906e-05 9.4634303170153508e-05 1.1118941970159885e-11 -2.22378839403198e-12 3.3356825910479663e-12
675 2.3115131902119556e-06 6.4667749941922268e-15 1.2000006141883801e-05 1.9999998771623213e-05 -3.9999981574348547e-06 0.00018988118084841942 -3.7976236169683816e-05 5.6964354254525771e-05 1.7650700573940659e-11 -3.5301401147881336e-12 5.2952101721821993e-12
676 1.5457913008166343e-06 1.9339765286124822e-15 1.2000012654569242e-05 1.9999997469086169e-05 4.0000037963707697e-06 0.00037557644695971937 -7.5115289391943638e-05 0.00011267293408791583 9.0992062831102646e-12 -1.8198412566220566e-12 2.729761884933079e-12
677 1.8191639356085472e-06 3.1522026900062992e-15 1.2000009516676488e-05 1.9999998096664711e-05 1.2000002855002944e-05 0.00028823175112078456 -5.7646350224157147e-05 8.6469525336235398e-05 1.2205495087508164e-11 -2.4410990175016292e-12 3.6616485262524486e-12
678 1.5484646046327489e-06 1.9440277946725022e-15 1.2000012617217127e-05 1.9999997476556582e-05 2.0000003785165132e-05 0.00037456092564511098 -7.4912185129022128e-05 0.00011236827769353323 9.1297590486556004e-12 -1.8259518097311213e-12 2.7389277145966809e-12
679 2.4582302604290807e-06 7.7779707162036403e-15 1.2000005473426613e-05 1.9999998905314672e-05 2.8000001642028022e-05 0.00016988110227292053 -3.3976220454584256e-05 5.0964330681876211e-05 1.9234212798612433e-11 -3.8468425597224827e-12 5.7702638395837268e-12
680 1.7957707928949942e-06 3.0321545492265043e-15 1.2000009738913975e-05 1.9999998052217192e-05 3.6000002921674202e-05 0.00029455076371876323 -5.8910152743752559e-05 8.836522911562854e-05 1.1941628582750518e-11 -2.388325716550105e-12 3.582488574825162e-12
681 1.639825772990881e-06 2.3088288791551673e-15 1.2000011428590788e-05 2.7999997714281846e-05 -3.5999996571422856e-05 0.00034193672738188491 -6.8387345476376749e-05 0.00010258101821456512 1.0172491717351756e-11 -2.0344983434703547e-12 3.0517475152055317e-12
682 3.1023094587210712e-06 1.5633419196036051e-14 1.2000003514786393e-05 2.7999999297042718e-05 -2.7999998945564134e-05 0.00011032420311255852 -2.2064840622511695e-05 3.309726093376745e-05 2.6014375443993861e-11 -5.2028750887987726e-12 7.8043126331981602e-12
683 2.111876486126507e-06 4.9317853535645497e-15 1.2000007260375417e-05 2.7999998547924947e-05 -1.9999997821887328e-05 0.00022296718289604691 -4.4593436579209407e-05 6.6890154868813999e-05 1.5467986349604086e-11 -3.0935972699208167e-12 4.6403959048812263e-12
684 1.6289296423988976e-06 2.2631096767395447e-15 1.200001156183609e-05 2.7999997687632766e-05 -1.199999653144916e-05 0.00034562343169975763 -6.9124686339951382e-05 0.00010368702950992717 1.0048315670719752e-11 -2.0096631341439533e-12 3.0144947012159267e-12
685 1.4644873153326431e-06 1.6445817458878044e-15 1.2000013868553619e-05 2.7999997226289261e-05 -3.9999958394339236e-06 0.0004082557757776968 -8.1651155155539439e-05 0.00012247673273330889 8.1696732583445606e-12 -1.6339346516689111e-12 2.45090197750337e-12
686 1.9558058770288631e-06 3.9172010545147555e-15 1.2000008353387337e-05 2.7999998329322555e-05 4.0000025060161997e-06 0.00025483328084993504 -5.0966656169987018e-05 7.6449984254980442e-05 1.3737705210993422e-11 -2.7475410421986848e-12 4.1213115632980274e-12
687 1.1613692281624624e-06 8.2018073951329512e-16 1.2000020115027044e-05 2.7999995976994607e-05 1.2000006034508092e-05 0.00056588070494802763 -0.00011317614098960557 0.00016976421148440834 4.7536991072832099e-12 -9.5073982145664174e-13 1.426109732184962e-12
688 2.1805488232749421e-06 5.4287028161754094e-15 1.2000006844388914e-05 2.7999998631122197e-05 2.0000002053316699e-05 0.00021071778292527398 -4.2143556585054886e-05 6.3215334877582123e-05 1.6222606778040244e-11 -3.2445213556080474e-12 4.8667820334120758e-12
689 1.9166302430240317e-06 3.6864948578396756e-15 1.2000008664978163e-05 2.7999998267004356e-05 2.8000002599493462e-05 0.00026383183806926889 -5.2766367613853986e-05 7.914955142078086e-05 1.330004166605385e-11 -2.6600083332107655e-12 3.9900124998161507e-12
690 1.9056433782118074e-06 3.6234603437970698e-15 1.2000008755371714e-05 2.7999998248925674e-05 3.6000002626611521e-05 0.00026643517189243879 -5.3287034378487775e-05 7.9930551567731635e-05 1.3177060299363208e-11 -2.6354120598726421e-12 3.9531180898089613e-12
691 1.7008022107764838e-06 2.5760842204214334e-15 1.2000010721647478e-05 3.5999997855670372e-05 -3.5999996783505757e-05 0.00032225341863487421 -6.4450683726974866e-05 9.667602559046232e-05 1.0866175945332031e-11 -2.173235189066406e-12 3.2598527835996092e-12
692 2.028428615235147e-06 4.3699634840545714e-15 1.200000781710896e-05 3.5999998436578225e-05 -2.7999997654867339e-05 0.00023925656667067894 -4.7851313334135913e-05 7.1776970001203571e-05 1.4545492979803004e-11 -2.909098595960599e-12 4.3636478939409027e-12
693 2.022501635584677e-06 4.3317687788122027e-15 1.2000007858980982e-05 3.5999998428203848e-05 -1.999999764230569e-05 0.00024047682624027465 -4.8095365248055033e-05 7.2143047872082265e-05 1.4479739991204333e-11 -2.8959479982408652e-12 4.3439219973613014e-12
694 2.2179393985210264e-06 5.7127819664212269e-15 1.2000006632341969e-05 3.5999998673531511e-05 -1.1999998010297384e-05 0.00020444818561782602 -4.0889637123565197e-05 6.1334455685347955e-05 1.6631787845029111e-11 -3.3263575690058221e-12 4.989536353508729e-12
695 1.661219974547864e-06 2.4003803098362559e-15 1.200001117321962e-05 3.5999997765356101e-05 -3.9999966480341078e-06 0.00033485033245055025 -6.6970066490110107e-05 0.00010045509973516479 1.0416124962491177e-11 -2.0832249924982345e-12 3.1248374887473569e-12
696 2.2430053407120149e-06 5.9086674155991646e-15 1.2000006495509221e-05 3.5999998700898109e-05 4.0000019486527521e-06 0.00020039333820209363 -4.0078667640418765e-05 6.0118001460628022e-05 1.6905436854512306e-11 -3.3810873709024605e-12 5.0716310563536935e-12
697 1.2885535721373824e-06 1.1202270620828624e-15 1.2000017107777819e-05 3.5999996578444434e-05 1.2000005132333334e-05 0.00049226175384211657 -9.8452350768422973e-05 0.00014767852615263469 6.1682311514688188e-12 -1.2336462302937683e-12 1.8504693454406494e-12
698 1.8208115899915575e-06 3.1607754953070859e-15 1.2000009501298377e-05 3.5999998099740375e-05 2.0000002850389444e-05 0.00028779376226221803 -5.7558752452443405e-05 8.6338128678665094e-05 1.2224063590319795e-11 -2.4448127180639624e-12 3.6672190770959433e-12
699 1.7319123357026217e-06 2.7200465652212293e-15 1.2000010384730002e-05 3.5999997923054086e-05 2.8000003115418957e-05 0.00031280025863205714 -6.25600517264114e-05 9.384007758961706e-05 1.1219189178893585e-11 -2.2438378357787173e-12 3.365756753668076e-12
700 2.1046329189534079e-06 4.8812123262282863e-15 1.2000007306381759e-05 3.599999853872367e-05 3.6000002191914518e-05 0.00022431782369758873 -4.4863564739517493e-05 6.7295347109276379e-05 1.5388151497024897e-11 -3.0776302994049848e-12 4.6164454491074729e-12
701 1.304071540293307e-06 1.1611888943550293e-15 2.0000016782908035e-05 -3.6000003356581561e-05 -3.5999994965127586e-05 0.00048405185770927426 -9.6810371541854781e-05 0.00014521555731278208 6.3434025261719336e-12 -1.2686805052343875e-12 1.9030207578515819e-12
702 1.9651916255022154e-06 3.9738670807052343e-15 2.0000008281139871e-05 -3.6000001656228005e-05 -2.799999751565804e-05 0.00025274135584197894 -5.0548271168395956e-05 7.5822406752593826e-05 1.3842363183328755e-11 -2.7684726366657485e-12 4.1527089549986223e-12
703 2.3092674763863667e-06 6.4479452230537629e-15 2.0000006153025102e-05 -3.6000001230605029e-05 -1.9999998154092521e-05 0.00019021309998420405 -3.8042619996840745e-05 5.7063929995261443e-05 1.7626331168905153e-11 -3.5252662337810321e-12 5.2878993506715407e-12
704 1.3298034100423788e-06 1.2312916921208786e-15 2.000001626234017e-05 -3.6000003252468073e-05 -1.1999995121297913e-05 0.00047079471893830967 -9.4158943787661577e-05 0.00014123841568149266 6.6346941165983033e-12 -1.3269388233196657e-12 1.9904082349794938e-12
705 3.0411681706883021e-06 1.4727191418643931e-14 2.0000003651871979e-05 -3.6000000730374434e-05 -3.9999989044383913e-06 0.00011453828764430853 -2.2907657528861768e-05 3.4361486293292559e-05 2.5380943660000013e-11 -5.0761887320000019e-12 7.6142830980000024e-12
706 2.7484154162391426e-06 1.0870405626741733e-14 2.0000004431739719e-05 -3.6000000886347888e-05 4.0000013295219187e-06 0.00013838177412156197 -2.7676354824312372e-05 4.1514532236468612e-05 2.2320335678017591e-11 -4.4640671356035196e-12 6.6961007034052769e-12
707 2.1210523256675472e-06 4.9963490379373719e-15 2.0000007202698292e-05 -3.6000001440539868e-05 1.2000002160809506e-05 0.00022127276322394114 -4.4254552644788364e-05 6.6381828967182672e-05 1.5569052343181474e-11 -3.1138104686362931e-12 4.670715702954436e-12
708 2.2708033209854175e-06 6.131082843871221e-15 2.000000634852568e-05 -3.6000001269705113e-05 2.000000190455768e-05 0.00019602974883386519 -3.9205949766773144e-05 5.8808924650159516e-05 1.7208301424421344e-11 -3.441660284884267e-12 5.1624904273264022e-12
709 2.1567694117730882e-06 5.2530286440292036e-15 2.0000006984417413e-05 -3.6000001396883458e-05 2.8000002095325245e-05 0.00021484857253879417 -4.2969714507758936e-05 6.4454571761638459e-05 1.5961760411016631e-11 -3.1923520822033249e-12 4.7885281233049839e-12
710 9.6770541122138234e-07 4.7449116571507039e-16 2.0000026134048655e-05 -3.6000005226809695e-05 3.6000007840214644e-05 0.00069942636294439693 -0.00013988527258887925 0.00020982790888331913 2.7430020339765376e-12 -5.4860040679530876e-13 8.2290061019296056e-13
711 1.5188207760656581e-06 1.8345020866440348e-15 2.00000130402269e-05 -2.8000002608045374e-05 -3.5999996087932025e-05 0.00038602678259164083 -7.720535651832821e-05 0.00011580803477749223 8.7908930389985314e-12 -1.7581786077997054e-12 2.6372679116995571e-12
712 1.2117713290569018e-06 9.3166684464785583e-16 2.0000018845577671e-05 -2.8000003769115489e-05 -2.7999994346326652e-05 0.00053533513551568923 -0.00010706702710313764 0.00016060054065470723 5.308820397766306e-12 -1.0617640795532634e-12 1.5926461193298852e-12
713 3.0006955320290632e-06 1.4147002073425962e-14 2.00000037470091e-05 -2.8000000749401761e-05 -1.999999887589718e-05 0.00011745884893016091 -2.3491769786032151e-05 3.5237654679048225e-05 2.4960607749678273e-11 -4.9921215499356556e-12 7.488182324903483e-12
714 2.4430530453371316e-06 7.6347938093594067e-15 2.0000005537497274e-05 -2.8000001107499427e-05 -1.19999983387508e-05 0.00017180535133792333 -3.4361070267584589e-05 5.1541605401376986e-05 1.9071171695624602e-11 -3.8142343391249225e-12 5.7213515086873809e-12
715 1.4223031580655323e-06 1.5065208455667409e-15 2.0000014562899441e-05 -2.8000002912579957e-05 -3.999995631130165e-06 0.00042665874362814117 -8.5331748725628141e-05 0.00012799762308844242 7.6877149542132208e-12 -1.5375429908426448e-12 2.3063144862639638e-12
716 2.6283930704335917e-06 9.5075706852478063e-15 2.000000482390643e-05 -2.8000000964781294e-05 4.0000014471719474e-06 0.00015028756973078889 -3.0057513946157825e-05 4.5086270919236814e-05 2.105080823609472e-11 -4.2101616472189425e-12 6.3152424708284125e-12
717 2.1502042794413479e-06 5.2052043966260863e-15 2.0000007023811371e-05 -2.8000001404762282e-05 1.2000002107143384e-05 0.00021600932300605766 -4.320186460121151e-05 6.48027969018176e-05 1.5889659428138552e-11 -3.1779318856277105e-12 4.7668978284415586e-12
718 1.7382530868345195e-06 2.7500313843222367e-15 2.0000010317914907e-05 -2.8000002063583038e-05 2.0000003095374432e-05 0.00031092005773982324 -6.2184011547964746e-05 9.3276017321947241e-05 1.1291057083185834e-11 -2.2582114166371652e-12 3.3873171249557447e-12
719 2.1368488931528329e-06 5.1088136187885562e-15 2.000000710495359e-05 -2.8000001420990763e-05 2.8000002131486058e-05 0.0002183983190855034 -4.3679663817100727e-05 6.5519495725651142e-05 1.574287069229473e-11 -3.1485741384589456e-12 4.7228612076884174e-12
720 2.6089727236126426e-06 9.2983788776623121e-15 2.0000004892131942e-05 -2.8000000978426398e-05 3.6000001467639609e-05 0.00015235303324184272 -3.0470606648368595e-05 4.5705909972552866e-05 2.0844504186890811e-11 -4.1689008373781607e-12 6.2533512560672423e-12
721 1.9846919991556632e-06 4.0933415053145513e-15 2.0000008133892331e-05 -2.0000001626778493e-05 -3.5999997559832263e-05 0.00024847145549778234 -4.9694291099556497e-05 7.4541436649334708e-05 1.4059560657105933e-11 -2.8119121314211869e-12 4.2178681971317802e-12
722 3.1748426072791433e-06 1.6755802101963012e-14 2.0000003361813593e-05 -2.0000000672362666e-05 -2.7999998991455911e-05 0.00010561371814579997 -2.1122743629160038e-05 3.1684115443739946e-05 2.6763486802152288e-11 -5.352697360430456e-12 8.029046040645688e-12
723 2.0215559391597705e-06 4.3256951772127842e-15 2.0000007865692027e-05 -2.0000001573138353e-05 -1.9999997640292378e-05 0.00024067233980360113 -4.8134467960720172e-05 7.220170194108037e-05 1.4469245731807942e-11 -2.8938491463615897e-12 4.3407737195423823e-12
724 1.4852011617082977e-06 1.7153567786022512e-15 2.000001354434898e-05 -2.0000002708869768e-05 -1.1999995936695301e-05 0.00039959081232570986 -7.9918162465141969e-05 0.00011987724369771272 8.40648610053497e-12 -1.6812972201069942e-12 2.5219458301604937e-12
725 1.7264327461655218e-06 2.6943103352317513e-15 2.000001044296855e-05 -2.0000002088593724e-05 -3.9999968671094184e-06 0.00031443762615626089 -6.2887525231251988e-05 9.4331287846877995e-05 1.1157059136821973e-11 -2.2314118273643976e-12 3.3471177410465945e-12
726 1.3724831158653412e-06 1.3536913501242644e-15 2.0000015446228059e-05 -2.0000003089245614e-05 4.0000046338684171e-06 0.00044976181966761483 -8.9952363933523124e-05 0.00013492854590028432 7.1196487063551377e-12 -1.4239297412710254e-12 2.1358946119065427e-12
727 1.7125399032941819e-06 2.6297878902723409e-15 2.0000010592726886e-05 -2.0000002118545368e-05 1.2000003177818062e-05 0.00031864168510372043 -6.3728337020744141e-05 9.5592505531116225e-05 1.0999442947593385e-11 -2.1998885895186759e-12 3.2998328842780129e-12
728 2.0104875340030628e-06 4.2550314669712038e-15 2.0000007944858382e-05 -2.0000001588971733e-05 2.0000002383457477e-05 0.00024297737657567138 -4.8595475315134167e-05 7.2893212972701481e-05 1.4346362882918459e-11 -2.8692725765836941e-12 4.3039088648755356e-12
729 2.2839342275405464e-06 6.238057897808463e-15 2.0000006280778586e-05 -2.0000001256155737e-05 2.800000188423358e-05 0.00019401573747094091 -3.8803147494188129e-05 5.8204721241282301e-05 1.7351144098666577e-11 -3.4702288197333168e-12 5.2053432295999715e-12
730 1.3878713281762259e-06 1.3997363267594438e-15 2.0000015165710777e-05 -2.0000003033142156e-05 3.6000004549713282e-05 0.00044246279207019965 -8.8492558414040085e-05 0.00013273883762105986 7.2949283670239971e-12 -1.4589856734047975e-12 2.1884785101071991e-12
731 1.8483870084349709e-06 3.3065671319479048e-15 2.0000009249132257e-05 -1.2000001849826463e-05 -3.5999997225260361e-05 0.00028059818504237103 -5.6119637008474197e-05 8.4179455512711231e-05 1.2534501663075554e-11 -2.5069003326151115e-12 3.7603504989226672e-12
732 2.3297675817738922e-06 6.6211955710094047e-15 2.0000006052404978e-05 -1.2000001210480992e-05 -2.799999818427851e-05 0.0001872137498084353 -3.7442749961687063e-05 5.616412494253068e-05 1.7848638059122389e-11 -3.5697276118244784e-12 5.354591417736715e-12
733 1.3073110535740907e-06 1.1698641220673071e-15 2.0000016716141124e-05 -1.2000003343228227e-05 -1.999999498515766e-05 0.00048235850903845316 -9.6471701807690906e-05 0.00014470755271153623 6.3800209092009156e-12 -1.2760041818401796e-12 1.9140062727602709e-12
734 1.4013924071994165e-06 1.441046193998227e-15 2.0000014924969645e-05 -1.2000002984993917e-05 -1.1999995522509096e-05 0.00043617063228247745 -8.7234126456495434e-05 0.00013085118968474304 7.4490860088216048e-12 -1.4898172017643213e-12 2.2347258026464833e-12
735 1.6948620110757885e-06 2.5491867863436491e-15 2.0000010787743222e-05 -1.2000002157548659e-05 -3.9999967636770462e-06 0.00032410245592881618 -6.4820491185763252e-05 9.7230736778644865e-05 1.0798697920204945e-11 -2.15973958404099e-12 3.2396093760614834e-12
736 1.3545540434673034e-06 1.301330573965364e-15 2.0000015782099533e-05 -1.2000003156419925e-05 4.0000047346298523e-06 0.00045845452375411816 -9.1690904750823656e-05 0.00013753635712623525 6.9156906591229459e-12 -1.3831381318245895e-12 2.0747071977368853e-12
737 2.0638496060150965e-06 4.6029129616440579e-15 2.000000757348217e-05 -1.2000001514696443e-05 1.2000002272044649e-05 0.00023214311596773637 -4.6428623193547375e-05 6.9642934790320815e-05 1.4937805917372223e-11 -2.9875611834744425e-12 4.4813417752116688e-12
738 1.954898747496695e-06 3.9117530277904787e-15 2.0000008360418116e-05 -1.2000001672083658e-05 2.0000002508125453e-05 0.00025503675006315508 -5.1007350012631164e-05 7.6511025018946712e-05 1.372758598230901e-11 -2.7455171964617998e-12 4.1182757946926978e-12
739 1.8661665943780488e-06 3.4029052381258582e-15 2.0000009091610695e-05 -1.2000001818322147e-05 2.800000272748318e-05 0.00027609038750592209 -5.5218077501184404e-05 8.2827116251777029e-05 1.2734328064651176e-11 -2.5468656129302352e-12 3.8202984193953462e-12
740 3.7458719314903511e-06 2.7520568284485123e-14 2.0000002439968283e-05 -1.2000000487993667e-05 3.6000000731990499e-05 7.704946261143874e-05 -1.5409892522287787e-05 2.3114838783431647e-05 3.2585162411824049e-11 -6.5170324823648074e-12 9.7755487235472115e-12
741 1.3837732614664436e-06 1.3873735990199264e-15 2.0000015239728961e-05 -4.0000030479457864e-06 -3.5999995428081338e-05 0.00044439216635692866 -8.8878433271385849e-05 0.0001333176499070785 7.2482308924410562e-12 -1.4496461784882099e-12 2.1744692677323194e-12
742 5.1643339713431283e-06 7.2117652528528697e-14 2.000000129986403e-05 -4.0000002599727979e-06 -2.799999961004083e-05 4.1305264505448873e-05 -8.2610529010898089e-06 1.239157935163474e-05 4.6663246373453387e-11 -9.3326492746906767e-12 1.3998973912036012e-11
743 2.9237723126273556e-06 1.308667357161951e-14 2.000000393821148e-05 -4.0000007876422799e-06 -1.9999998818536644e-05 0.00012331852009679883 -2.4663704019359714e-05 3.6995556029039618e-05 2.415934116734104e-11 -4.8318682334682093e-12 7.2478023502023115e-12
744 3.5853765030712054e-06 2.413253397433209e-14 2.0000002656894959e-05 -4.000000531379005e-06 -1.1999999202931511e-05 8.3798468876763641e-05 -1.6759693775352695e-05 2.5139540663028973e-05 3.0961066536288718e-11 -6.1922133072577439e-12 9.2883199608866167e-12
745 4.0473549028092499e-06 3.4714625719138007e-14 2.0000002097921695e-05 -4.0000004195843568e-06 -3.9999993706234779e-06 6.6373805192000162e-05 -1.3274761038400007e-05 1.9912141557600103e-05 3.5614787480433658e-11 -7.1229574960867313e-12 1.0684436244130093e-11
746 2.0970954630058784e-06 4.8289557337481222e-15 2.0000007354705503e-05 -4.0000014709411013e-06 4.0000022064116576e-06 0.00022573561866205073 -4.5147123732410223e-05 6.7720685598615202e-05 1.5305029134931953e-11 -3.0610058269863891e-12 4.5915087404795847e-12
747 3.1899758087314793e-06 1.6996550581820391e-14 2.000000333114212e-05 -4.0000006662284451e-06 1.2000000999342643e-05 0.00010466823677348882 -2.0933647354697805e-05 3.1400471032046664e-05 2.6919470697706384e-11 -5.3838941395412761e-12 8.0758412093119142e-12
748 2.0336639494731569e-06 4.4038872588058148e-15 2.0000007780391306e-05 -4.0000015560782616e-06 2.0000002334117398e-05 0.00023818595754633497 -4.7637191509266851e-05 7.1455787263900595e-05 1.4603547332965076e-11 -2.9207094665930182e-12 4.3810641998895204e-12
749 2.3127393042766907e-06 6.4770711202036207e-15 2.0000006135813274e-05 -4.0000012271626635e-06 2.8000001840743971e-05 0.00018970031049939199 -3.7940062099878414e-05 5.6910093149817574e-05 1.7664004057924393e-11 -3.5328008115848791e-12 5.2992012173773196e-12
750 2.2762666408232701e-06 6.1754416647522098e-15 2.0000006320209498e-05 -4.00000126404188e-06 3.600000189606266e-05 0.00019518816545845252 -3.9037633091690507e-05 5.8556449637535849e-05 1.7267750517013499e-11 -3.4535501034027004e-12 5.1803251551040473e-12
751 3.1873161958766621e-06 1.6954073865090038e-14 2.0000003336502463e-05 3.9999993326994997e-06 -3.5999998999049282e-05 0.00010483349919425167 -2.0966699838850254e-05 3.1450049758275413e-05 2.6892064603925437e-11 -5.3784129207850915e-12 8.0676193811776344e-12
752 2.3132215431957816e-06 6.4811236484438401e-15 2.0000006133428145e-05 3.9999987733143783e-06 -2.7999998159971551e-05 0.00018962924072766669 -3.7925848145533345e-05 5.6888772218299947e-05 1.7669236075994734e-11 -3.5338472151989449e-12 5.3007708227984187e-12
753 2.8177338040905524e-06 1.1713818995210639e-14 2.0000004226299501e-05 3.9999991547401119e-06 -1.9999998732110203e-05 0.00013212224170900498 -2.6424448341800974e-05 3.9636672512701463e-05 2.3049442090167629e-11 -4.6098884180335246e-12 6.9148326270502881e-12
754 1.5136919503141557e-06 1.8159802730760084e-15 2.0000013115421345e-05 3.9999973769157202e-06 -1.1999996065373638e-05 0.00038805693163621128 -7.761138632724225e-05 0.00011641707949086346 8.7322523956676802e-12 -1.7464504791335362e-12 2.6196757187003027e-12
755 2.1443060030997655e-06 5.1624862336242967e-15 2.0000007059479996e-05 3.9999985881039921e-06 -3.9999978821560044e-06 0.00021705979390457215 -4.3411958780914506e-05 6.5117938171371651e-05 1.5824850546066504e-11 -3.1649701092132993e-12 4.7474551638199505e-12
756 3.8139835011969021e-06 2.9049258574190858e-14 2.0000002355793994e-05 3.9999995288411814e-06 4.0000007067382032e-06 7.4426135056817816e-05 -1.4885227011363552e-05 2.2327840517045319e-05 3.3271916288214107e-11 -6.6543832576428205e-12 9.98157488646423e-12
757 2.1192337400668004e-06 4.9835084776602937e-15 2.0000007214076502e-05 3.9999985571846858e-06 1.2000002164222967e-05 0.00022160712891382077 -4.4321425782764269e-05 6.6482138674146376e-05 1.5549027586572094e-11 -3.1098055173144172e-12 4.664708275971625e-12
758 3.1466613024537707e-06 1.6313555319382564e-14 2.0000003420055395e-05 3.999999315988916e-06 2.0000001026016577e-05 0.00010740815266241397 -2.1481630532482888e-05 3.2222445798724261e-05 2.6472729089535734e-11 -5.2945458179071443e-12 7.941818726860718e-12
759 1.7728758691110609e-06 2.9176527935373997e-15 2.0000009963682272e-05 3.9999980072635356e-06 2.8000002989104684e-05 0.0003009214701356226 -6.0184294027124552e-05 9.027644104068672e-05 1.168296701534918e-11 -2.3365934030698355e-12 3.5048901046047546e-12
760 2.1733637478719812e-06 5.3752154740083007e-15 2.0000006886265224e-05 3.9999986227469476e-06 3.6000002065879559e-05 0.00021195390726785852 -4.2390781453571678e-05 6.3586172180357331e-05 1.614384158361065e-11 -3.228768316722131e-12 4.8431524750831989e-12
761 1.5933275506606368e-06 2.1179408134243171e-15 2.0000012012828979e-05 1.1999997597434207e-05 -3.5999996396151248e-05 0.00035804664521911077 -7.1609329043822217e-05 0.00010741399356573314 9.6421948505696743e-12 -1.9284389701139342e-12 2.8926584551709033e-12
762 1.2964779682977502e-06 1.1410220713241693e-15 2.0000016940830545e-05 1.1999996611833917e-05 -2.799999491775085e-05 0.00048804889269833988 -9.7609778539668043e-05 0.0001464146678095012 6.2576333980352823e-12 -1.2515266796070556e-12 1.8772900194105936e-12
763 1.9436641382369865e-06 3.8446984938818029e-15 2.0000008448206481e-05 1.1999998310358674e-05 -1.9999997465538032e-05 0.00025757565440579129 -5.1515130881158407e-05 7.7272696321737495e-05 1.3602202094613825e-11 -2.7204404189227629e-12 4.080660628384145e-12
764 1.5447230637113653e-06 1.9299698076780744e-15 2.0000012669538339e-05 1.1999997466092346e-05 -1.1999996199138511e-05 0.0003759832557193522 -7.519665114387038e-05 0.0001127949767158058 9.0869971410224742e-12 -1.8173994282044961e-12 2.7260991423067394e-12
765 1.2302394635573504e-06 9.7491686857908268e-16 2.0000018406864779e-05 1.1999996318627018e-05 -3.9999944779405445e-06 0.00052459670857865864 -0.00010491934171573155 0.00015737901257359773 5.5142240076100287e-12 -1.1028448015220076e-12 1.6542672022830072e-12
766 1.9766749789125325e-06 4.043937334707576e-15 2.0000008193967364e-05 1.1999998361206539e-05 4.0000024581902005e-06 0.00025021454485795337 -5.0042908971590494e-05 7.5064363457385538e-05 1.3970306383769869e-11 -2.794061276753977e-12 4.1910919151309687e-12
767 3.5868870127143599e-06 2.4163047744407134e-14 2.0000002654721801e-05 1.1999999469055619e-05 1.2000000796416532e-05 8.3730942674691493e-05 -1.6746188534938297e-05 2.5119282802407388e-05 3.0976392074945553e-11 -6.1952784149891122e-12 9.2929176224836691e-12
768 1.6505711023747137e-06 2.3545143105802633e-15 2.0000011299307774e-05 1.1999997740138423e-05 2.0000003389792304e-05 0.00033835258890703619 -6.7670517781407276e-05 0.0001015057766721109 1.0294888794792847e-11 -2.0589777589585689e-12 3.0884666384378521e-12
769 2.5522726467905386e-06 8.7052213908038024e-15 2.0000005099640896e-05 1.1999998980071808e-05 2.8000001529892298e-05 0.00015862457391779708 -3.1724914783559405e-05 4.7587372175339148e-05 2.0240699649855606e-11 -4.0481399299711217e-12 6.0722098949566806e-12
770 3.8870512826900893e-06 3.0751013471356567e-14 2.0000002270207299e-05 1.1999999545958546e-05 3.6000000681062155e-05 7.1756210235780874e-05 -1.4351242047156166e-05 2.1526863070734228e-05 3.4007101594170879e-11 -6.8014203188341764e-12 1.0202130478251265e-11
771 1.3893418536852686e-06 1.4041903340619055e-15 2.0000015139270807e-05 1.9999996972145874e-05 -3.599999545821877e-05 0.0004417730076830891 -8.8354601536617787e-05 0.0001325319023049269 7.3116880630386125e-12 -1.4623376126077225e-12 2.1935064189115811e-12
772 2.2928994322747421e-06 6.3118060104647687e-15 2.0000006235128579e-05 1.9999998752974312e-05 -2.7999998129461428e-05 0.00019265765506547454 -3.8531531013095007e-05 5.7797296519642474e-05 1.7448589866743648e-11 -3.4897179733487276e-12 5.2345769600230912e-12
773 3.9336971014784954e-06 3.1871416782186856e-14 2.0000002217965949e-05 1.9999999556406757e-05 -1.9999999334610258e-05 7.0125238490837847e-05 -1.4025047698167551e-05 2.1037571547251274e-05 3.4475636340890599e-11 -6.8951272681781187e-12 1.0342690902267182e-11
774 1.2992586244007644e-06 1.1483795425407958e-15 2.000001688276975e-05 1.9999996623446072e-05 -1.1999994935169069e-05 0.00048658071233709883 -9.7316142467419658e-05 0.00014597421370112979 6.2890298400307076e-12 -1.2578059680061429e-12 1.8867089520092107e-12
775 1.7778811272412356e-06 2.9424343486438992e-15 2.0000009913914736e-05 1.9999998017216994e-05 -3.9999970258255898e-06 0.00029951264847537668 -5.9902529695075389e-05 8.9853794542612606e-05 1.1739549678014665e-11 -2.3479099356029322e-12 3.5218649034044057e-12
776 2.1099334140622309e-06 4.9181851260927203e-15 2.0000007272675129e-05 1.9999998545464989e-05 4.0000021818025434e-06 0.00022332835449469593 -4.4665670898939363e-05 6.6998506348408702e-05 1.5446575285916481e-11 -3.0893150571832926e-12 4.6339725857749445e-12
777 2.6392224571641432e-06 9.6255735359546638e-15 2.0000004786467872e-05 1.9999999042706346e-05 1.200000143594039e-05 0.00014915342133885591 -2.9830684267771196e-05 4.4746026401656694e-05 2.1165739914488872e-11 -4.2331479828977735e-12 6.3497219743466635e-12
778 2.5792280145307322e-06 8.983960507666275e-15 2.0000004999410108e-05 1.9999999000118021e-05 2.0000001499823071e-05 0.00015559729307365825 -3.1119458614731584e-05 4.6679187922097308e-05 2.0528026761584499e-11 -4.1056053523169018e-12 6.1584080284753524e-12
779 2.3230600929849828e-06 6.5641720436964972e-15 2.0000006085060747e-05 1.9999998782987817e-05 2.800000182551816e-05 0.0001881875943679214 -3.7637518873584438e-05 5.6456278310376362e-05 1.7775937931333488e-11 -3.555187586266694e-12 5.3327813794000473e-12
780 1.2655588228375906e-06 1.0613182442092746e-15 2.0000017604921381e-05 1.9999996479015686e-05 3.6000005281476578e-05 0.00050472994198188625 -0.00010094598839637746 0.00015141898259456632 5.9094639629641824e-12 -1.1818927925928344e-12 1.7728391888892491e-12
781 1.7958002912768503e-06 3.0323039755157979e-15 2.0000009738629047e-05 2.7999998052274195e-05 -3.5999997078411391e-05 0.00029454267579567936 -5.890853515913562e-05 8.8362802738703612e-05 1.1941961586618325e-11 -2.38839231732367e-12 3.5825884759855012e-12
782 2.6954174046673083e-06 1.0253607933281648e-14 2.0000004598893798e-05 2.799999908022119e-05 -2.7999998620331888e-05 0.00014346333410996596 -2.8692666821993279e-05 4.3039000232989794e-05 2.1760894331794849e-11 -4.3521788663589691e-12 6.5282682995384545e-12
783 1.3628677433088584e-06 1.325439046065125e-15 2.0000015625127604e-05 2.7999996874974516e-05 -1.9999995312461697e-05 0.00045439827322350476 -9.0879654644700897e-05 0.00013631948196705118 7.010227601398003e-12 -1.4020455202796015e-12 2.1030682804194035e-12
784 2.6721658409094417e-06 9.9905373149296657e-15 2.0000004675170297e-05 2.7999999064965947e-05 -1.1999998597448897e-05 0.00014577875905386615 -2.9155751810773156e-05 4.3733627716159775e-05 2.1514889267005617e-11 -4.302977853401125e-12 6.4544667801016859e-12
785 3.6679755477549264e-06 2.5839131834848661e-14 2.0000002541829494e-05 2.7999999491634091e-05 -3.9999992374511428e-06 8.0220647472192358e-05 -1.6044129494438394e-05 2.4066194241657612e-05 3.179796838463152e-11 -6.3595936769263098e-12 9.5393905153894615e-12
786 2.0763496722543141e-06 4.6870555776813493e-15 2.0000007490130686e-05 2.7999998501973863e-05 4.0000022470391897e-06 0.0002297041143550575 -4.5940822871011541e-05 6.8911234306517281e-05 1.5075990904851499e-11 -3.0151981809702985e-12 4.522797271455448e-12
787 2.1464363506322502e-06 5.177888167457774e-15 2.000000704656682e-05 2.799999859068668e-05 1.2000002113970039e-05 0.00021667954671453254 -4.3335909342906284e-05 6.5003864014359544e-05 1.5848261759264153e-11 -3.1696523518528342e-12 4.754478527779247e-12
788 2.2598929582142344e-06 6.0431340646164488e-15 2.0000006405630619e-05 2.7999998718873821e-05 2.0000001921689192e-05 0.00019772603248206192 -3.9545206496412141e-05 5.9317809744618459e-05 1.7089506932693065e-11 -3.4179013865386168e-12 5.1268520798079208e-12
789 1.88089428004097e-06 3.4841093696133925e-15 2.0000008964031308e-05 2.7999998207193723e-05 2.800000268920944e-05 0.0002724321937512309 -5.4486438750246204e-05 8.1729658125369322e-05 1.2899653502377591e-11 -2.5799307004755177e-12 3.8698960507132753e-12
790 2.2325709540221807e-06 5.826589649146514e-15 2.0000006551964918e-05 2.7999998689606989e-05 3.6000001965589422e-05 0.00020206718702944787 -4.041343740588968e-05 6.0620156108834321e-05 1.6791586708741873e-11 -3.3583173417483724e-12 5.0374760126225619e-12
791 2.3664648649255467e-06 6.9390306351336908e-15 2.000000587819832e-05 3.599999882436031e-05 -3.5999998236540512e-05 0.00018201185324237261 -3.6402370648474533e-05 5.4603555972711817e-05 1.824575433152267e-11 -3.6491508663045338e-12 5.4737262994568015e-12
792 1.3736722927801664e-06 1.3572130845641883e-15 2.0000015424297786e-05 3.5999996915140424e-05 -2.7999995372710698e-05 0.0004491924711233162 -8.9838494224663272e-05 0.00013475774133699472 7.1331870858123259e-12 -1.4266374171624649e-12 2.1399561257436987e-12
793 1.5176148565182105e-06 1.8301358587288628e-15 2.0000013057852805e-05 3.5999997388429414e-05 -1.9999996082644182e-05 0.0003865028754232693 -7.7300575084653626e-05 0.00011595086262698045 8.7771053093930693e-12 -1.7554210618786169e-12 2.633131592817925e-12
794 2.5811734846761791e-06 9.0043052157330331e-15 2.0000004992288367e-05 3.5999999001542249e-05 -1.1999998502313482e-05 0.00015538205205344125 -3.1076410410688356e-05 4.6614615616032609e-05 2.0548744711370776e-11 -4.1097489422741538e-12 6.1646234134112275e-12
795 1.9677397406183061e-06 3.9893449696352853e-15 2.000000826168141e-05 3.5999998347663652e-05 -3.9999975214956003e-06 0.00025217758340782809 -5.043551668156548e-05 7.5653275022348389e-05 1.3870763267863296e-11 -2.7741526535726619e-12 4.1612289803589892e-12
796 2.1939599190279178e-06 5.5294850748293638e-15 2.0000006767211715e-05 3.5999998646557767e-05 4.0000020301635161e-06 0.00020843787152919935 -4.1687574305839907e-05 6.253136145875983e-05 1.6369506204058038e-11 -3.2739012408116066e-12 4.9108518612174097e-12
797 2.1318763997640296e-06 5.0732315896290274e-15 2.0000007135512967e-05 3.5999998572897404e-05 1.2000002140653872e-05 0.00021929739438745436 -4.3859478877490804e-05 6.5789218316236064e-05 1.5688178858581779e-11 -3.1376357717163575e-12 4.7064536575745386e-12
798 3.2925801085994709e-06 1.8689929913790084e-14 2.000000313370699e-05 3.5999999373258504e-05 2.0000000940112156e-05 9.8573972671005527e-05 -1.9714794534201186e-05 2.9572191801301588e-05 2.7974356520513956e-11 -5.5948713041027895e-12 8.3923069561541883e-12
799 1.4026405804590708e-06 1.4449000991817245e-15 2.0000014903011664e-05 3.599999701939767e-05 2.8000004470903512e-05 0.00043559543632375842 -8.7119087264751473e-05 0.00013067863089712779 7.463322881489428e-12 -1.4926645762978882e-12 2.238996864446824e-12
800 1.5140389380783372e-06 1.8172294058149456e-15 2.000001311031501e-05 3.5999997377936898e-05 3.6000003933094553e-05 0.00038791914474394998 -7.7583828948789676e-05 0.00011637574342318449 8.7362197609080364e-12 -1.7472439521816121e-12 2.6208659282724186e-12
801 1.5288200410852427e-06 1.8709738772686774e-15 2.8000012895350155e-05 -3.6000002579070063e-05 -3.5999996131394959e-05 0.00038210845695787045 -7.6421691391573935e-05 0.00011463253708736075 8.9052122911858367e-12 -1.7810424582371694e-12 2.671563687355756e-12
802 3.2520679719099562e-06 1.8008496885973207e-14 2.800000320953646e-05 -3.6000000641907338e-05 -2.7999999037139037e-05 0.00010091627468071457 -2.0183254936142895e-05 3.0274882404214386e-05 2.7558398598896486e-11 -5.5116797197792981e-12 8.2675195796689463e-12
803 1.6807215555417589e-06 2.4859130392383422e-15 2.8000010947430374e-05 -3.6000002189486074e-05 -1.9999996715770929e-05 0.00032856230450943092 -6.571246090188618e-05 9.8568691352829269e-05 1.0637978432114167e-11 -2.1275956864228342e-12 3.1913935296342513e-12
804 1.4770564400746289e-06 1.6872906267160339e-15 2.8000013670556599e-05 -3.6000002734111326e-05 -1.1999995898833029e-05 0.00040296937563343742 -8.0593875126687878e-05 0.00012089081269003173 8.3133643321599454e-12 -1.6626728664319831e-12 2.4940092996479759e-12
805 1.9087313532327733e-06 3.641103670360956e-15 2.8000008729828976e-05 -3.6000001745965739e-05 -3.9999973810513204e-06 0.00026569986754933922 -5.3139973509867758e-05 7.970996026480164e-05 1.3211635988675206e-11 -2.6423271977350427e-12 3.9634907966025646e-12
806 1.3128421195886192e-06 1.184775670183015e-15 2.8000016602972686e-05 -3.6000003320594478e-05 4.0000049808917915e-06 0.00047948361329900853 -9.589672265980204e-05 0.00014384508398970278 6.4425796294270621e-12 -1.2885159258854085e-12 1.9327738888281159e-12
807 2.0344618424395657e-06 4.4090727902825368e-15 2.8000007774817339e-05 -3.6000001554963577e-05 1.2000002332445186e-05 0.00023802338492446469 -4.7604676984892983e-05 7.1407015477339356e-05 1.4612393016225914e-11 -2.9224786032451829e-12 4.3837179048677756e-12
808 3.0433684673656951e-06 1.4759180087537721e-14 2.8000003646802572e-05 -3.6000000729360529e-05 2.0000001094040787e-05 0.00011438257206464246 -2.2876514412928482e-05 3.4314771619392788e-05 2.5403771308218873e-11 -5.0807542616437766e-12 7.6211313924656616e-12
809 1.8180168178479896e-06 3.1462433567500365e-15 2.8000009527403958e-05 -3.6000001905480779e-05 2.8000002858221194e-05 0.00028853722847597876 -5.7707445695195731e-05 8.656116854279364e-05 1.2192566171798835e-11 -2.4385132343597673e-12 3.6577698515396493e-12
810 1.9175171357782359e-06 3.6916148418561226e-15 2.8000008657740035e-05 -3.6000001731548106e-05 3.6000002597321935e-05 0.00026362324076125072 -5.2724648152250416e-05 7.9086972228375601e-05 1.33099645656501e-11 -2.6619929131300145e-12 3.9929893696950217e-12
811 1.7656660773714692e-06 2.8822015149573111e-15 2.800001003599947e-05 -2.8000002007199924e-05 -3.599999698920014e-05 0.00030296683916710223 -6.0593367833420272e-05 9.0890051750130499e-05 1.160142953973634e-11 -2.3202859079472715e-12 3.4804288619209042e-12
812 1.9834688616906971e-06 4.0857781638720277e-15 2.8000008143016588e-05 -2.800000162860339e-05 -2.7999997557095058e-05 0.00024873628908672922 -4.9747257817345689e-05 7.462088672601854e-05 1.4045946983733526e-11 -2.8091893967467077e-12 4.2137840951200595e-12
813 2.4524453331262024e-06 7.723188388412824e-15 2.8000005497718918e-05 -2.8000001099543819e-05 -1.9999998350684308e-05 0.00017061085920360699 -3.4122171840721539e-05 5.1183257761082282e-05 1.917208856734134e-11 -3.8344177134682642e-12 5.7516265702023967e-12
814 2.2103517568280314e-06 5.6543514856088426e-15 2.8000006674590923e-05 -2.8000001334918188e-05 -1.1999997997622746e-05 0.0002056987322704167 -4.1139746454083305e-05 6.1709619681124965e-05 1.6548848521518355e-11 -3.3097697043036735e-12 4.964654556455509e-12
815 1.3347497315958013e-06 1.2450825569822055e-15 2.8000016164791534e-05 -2.8000003232958321e-05 -3.9999951505625504e-06 0.00046829663462810033 -9.3659326925620207e-05 0.00014048899038842999 6.6907918992754769e-12 -1.3381583798550937e-12 2.007237569782644e-12
816 1.9814617757572224e-06 4.073387428600699e-15 2.8000008158021004e-05 -2.800000163160419e-05 4.0000024474063098e-06 0.00024917172345602931 -4.9834344691206002e-05 7.4751517036808837e-05 1.4023605028152505e-11 -2.8047210056304988e-12 4.2070815084457519e-12
817 1.9066302671711954e-06 3.6290927804942595e-15 2.800000874719674e-05 -2.8000001749439365e-05 1.2000002624159037e-05 0.00026619986685587544 -5.3239973371174979e-05 7.9859960056762559e-05 1.3188111266546739e-11 -2.6376222533093492e-12 3.956433379964021e-12
818 1.0113919966687816e-06 5.4169791038113636e-16 2.800002460123444e-05 -2.8000004920246966e-05 2.000000738037029e-05 0.00066726349146488525 -0.00013345269829297723 0.00020017904743946613 3.1734377186426583e-12 -6.3468754372852985e-13 9.5203131559279184e-13
819 1.8394593403275972e-06 3.2588862360240384e-15 2.8000009329709903e-05 -2.8000001865942062e-05 2.8000002798913017e-05 0.00028290024466580145 -5.658004893316037e-05 8.4870073399740528e-05 1.2434064002978157e-11 -2.4868128005956306e-12 3.7302192008934449e-12
820 1.2636395705062411e-06 1.0564970143189697e-15 2.8000017647287257e-05 -2.8000003529457454e-05 3.6000005294186145e-05 0.00050578710026550364 -0.00010115742005310067 0.00015173613007965115 5.887913724571553e-12 -1.1775827449143117e-12 1.7663741173714648e-12
821 1.2785328856558882e-06 1.0942947907275682e-15 2.8000017322075177e-05 -2.0000003464414985e-05 -3.5999994803377368e-05 0.00049765044467074281 -9.9530088934148976e-05 0.00014929513340122317 6.055339871162955e-12 -1.2110679742325861e-12 1.8166019613488815e-12
822 2.3986998544880478e-06 7.2264724058402406e-15 2.8000005731160815e-05 -2.0000001146232145e-05 -2.7999998280651767e-05 0.00017761234234515811 -3.5522468469031528e-05 5.3283702703547299e-05 1.8593711136379604e-11 -3.7187422272759225e-12 5.5781133409138837e-12
823 1.6153672623089776e-06 2.2070514299203976e-15 2.8000011730774395e-05 -2.0000002346154885e-05 -1.9999996480767695e-05 0.00035028705011823472 -7.0057410023646692e-05 0.00010508611503547021 9.8936731019977865e-12 -1.9787346203995609e-12 2.9681019305993384e-12
824 1.4565881128561534e-06 1.6181132213070715e-15 2.800001399502992e-05 -2.0000002799006037e-05 -1.1999995801491006e-05 0.00041162366641431627 -8.2324733282863066e-05 0.00012348709992429516 8.0793838450390514e-12 -1.6158767690078131e-12 2.423815153511711e-12
825 1.3046395155376114e-06 1.1627067877008123e-15 2.8000016771175929e-05 -2.0000003354235162e-05 -3.999994968647235e-06 0.00048375445677225341 -9.6750891354450665e-05 0.00014512633703167636 6.34982153576656e-12 -1.269964307153312e-12 1.9049464607299638e-12
826 1.3842983887273509e-06 1.3889536791442357e-15 2.800001523021658e-05 -2.0000003046043308e-05 4.0000045690649579e-06 0.00044414435265199446 -8.8828870530398551e-05 0.00013324330579559779 7.254214004511323e-12 -1.450842800902269e-12 2.1762642013534026e-12
827 3.1050532154090046e-06 1.567493560209409e-14 2.8000003508813946e-05 -2.000000070176276e-05 1.200000105264418e-05 0.00011014045443239297 -2.2028090886478604e-05 3.3042136329717948e-05 2.6042758106926556e-11 -5.208551621385311e-12 7.8128274320779661e-12
828 2.7881742724032407e-06 1.1349020192650459e-14 2.8000004312151947e-05 -2.0000000862430415e-05 2.0000001293645568e-05 0.0001347399498600703 -2.6947989972014e-05 4.0421984958021026e-05 2.2738882672951157e-11 -4.5477765345902325e-12 6.8216648018853467e-12
829 2.7873542870381996e-06 1.1339010100406889e-14 2.8000004314569968e-05 -2.0000000862914007e-05 2.8000001294370982e-05 0.00013481364035774324 -2.6962728071548756e-05 4.0444092107323018e-05 2.2730260267703867e-11 -4.5460520535407704e-12 6.8190780803111576e-12
830 3.6754167969383316e-06 2.599671120022696e-14 2.8000002531828642e-05 -2.0000000506365764e-05 3.6000000759548526e-05 7.990945979899518e-05 -1.5981891959799008e-05 2.397283793969848e-05 3.1873251755846817e-11 -6.3746503511693643e-12 9.5619755267540489e-12
831 2.6502989760640225e-06 9.7472752166479085e-15 2.8000004748615492e-05 -1.2000000949723116e-05 -3.5999998575415301e-05 0.00014800620807199288 -2.9601241614398573e-05 4.4401862421597899e-05 2.1283213756756736e-11 -4.2566427513513473e-12 6.3849641270270193e-12
832 2.7703131274180834e-06 1.1132307710060992e-14 2.8000004365279337e-05 -1.2000000873055878e-05 -2.7999998690416241e-05 0.00013635849294303762 -2.7271698588607545e-05 4.0907547882911185e-05 2.2550975132110531e-11 -4.5101950264221063e-12 6.7652925396331615e-12
833 1.1843894090261679e-06 8.699257133462175e-16 2.8000019521770678e-05 -1.2000003904354169e-05 -1.9999994143468847e-05 0.00055170398292016026 -0.000110340796584032 0.00016551119487604848 5.0061597674027375e-12 -1.0012319534805479e-12 1.501847930220816e-12
834 1.3884087573420199e-06 1.4013630275524038e-15 2.8000015156040444e-05 -1.2000003031208119e-05 -1.1999995453187875e-05 0.00044221054303203563 -8.8442108606407401e-05 0.00013266316290961067 7.301053306016355e-12 -1.4602106612032674e-12 2.1903159918049064e-12
835 2.0931134796090258e-06 4.8015001412662271e-15 2.8000007380422092e-05 -1.2000001476084421e-05 -3.9999977858733559e-06 0.00022648976331000943 -4.529795266200203e-05 6.7946928993002848e-05 1.5261096232847953e-11 -3.052219246569588e-12 4.578328869854385e-12
836 1.5709022145098538e-06 2.0297664888473962e-15 2.8000012309726927e-05 -1.2000002461945382e-05 4.0000036929180678e-06 0.00036617840276812917 -7.3235680553626067e-05 0.00010985352083043902 9.3861246634974306e-12 -1.8772249326994831e-12 2.8158373990492249e-12
837 2.291207266566436e-06 6.2978419336053951e-15 2.8000006243707733e-05 -1.2000001248741552e-05 1.2000001873112312e-05 0.0001929129448186163 -3.8582588963723336e-05 5.7873883445584679e-05 1.7430202170873609e-11 -3.4860404341747204e-12 5.2290606512620853e-12
838 1.5687490315666619e-06 2.0214315253375054e-15 2.8000012338775133e-05 -1.2000002467754999e-05 2.0000003701632488e-05 0.00036697200490129955 -7.3394400980260059e-05 0.00011009160147038986 9.3615291094792938e-12 -1.8723058218958571e-12 2.8084587328437882e-12
839 1.6202994315695917e-06 2.2273294594586824e-15 2.8000011668936291e-05 -1.2000002333787271e-05 2.8000003500680888e-05 0.00034858136543147863 -6.971627308629561e-05 0.00010457440962944373 9.9499212825458832e-12 -1.9899842565091788e-12 2.9849763847637625e-12
840 1.6586175643642543e-06 2.3891169129594095e-15 2.8000011203848707e-05 -1.2000002240769768e-05 3.6000003361154739e-05 0.00033570169953215431 -6.7140339906430894e-05 0.00010071050985964607 1.0386502698229462e-11 -2.0773005396458927e-12 3.1159508094688414e-12
841 3.9656006225754603e-06 3.2653184674805906e-14 2.8000002183258524e-05 -4.0000004366517115e-06 -3.5999999345022477e-05 6.9041140226259619e-05 -1.3808228045251994e-05 2.0712342067877896e-05 3.4795743870328793e-11 -6.959148774065756e-12 1.0438723161098637e-11
842 2.2937733694500255e-06 6.3190259843173856e-15 2.8000006230704517e-05 -4.0000012461409136e-06 -2.7999998130788623e-05 0.00019252599760582291 -3.8505199521164474e-05 5.7757799281746897e-05 1.7458085478200104e-11 -3.4916170956400234e-12 5.2374256434600287e-12
843 2.8954482219294083e-06 1.2710014072839479e-14 2.8000004012256496e-05 -4.0000008024512991e-06 -1.9999998796323043e-05 0.00012558416761859135 -2.5116833523718306e-05 3.7675250285577387e-05 2.3863496814364846e-11 -4.7726993628729685e-12 7.1590490443094511e-12
844 3.010933931686592e-06 1.4292305813323753e-14 2.8000003722599048e-05 -4.0000007445198207e-06 -1.19999988832203e-05 0.00011670981111721697 -2.3341962223443321e-05 3.5012943335165058e-05 2.5067019992816643e-11 -5.0134039985633306e-12 7.5201059978449942e-12
845 2.1497254589482002e-06 5.2017277917457806e-15 2.8000007026697122e-05 -4.0000014053394151e-06 -3.9999978919908751e-06 0.00021609432990627846 -4.3218865981255663e-05 6.4828298971883434e-05 1.5884399376173926e-11 -3.1768798752347856e-12 4.7653198128521794e-12
846 2.4089819162586641e-06 7.3198004539272575e-15 2.8000005685391851e-05 -4.0000011370783751e-06 4.0000017056175696e-06 0.00017624123191789669 -3.5248246383579302e-05 5.2872369575369017e-05 1.8704530670210792e-11 -3.7409061340421595e-12 5.6113592010632356e-12
847 2.4869882629010491e-06 8.0541521453742551e-15 2.8000005354969983e-05 -4.0000010709939979e-06 1.2000001606490981e-05 0.00016631942678783248 -3.3263885357566594e-05 4.9895828036349844e-05 1.9542676497930716e-11 -3.908535299586141e-12 5.862802949379212e-12
848 1.6635771363664636e-06 2.4106127603555473e-15 2.8000011145579332e-05 -4.0000022291158751e-06 2.0000003343673799e-05 0.00033408170866332487 -6.6816341732664849e-05 0.0001002245125989974 1.0442952319485365e-11 -2.0885904638970749e-12 3.1328856958456097e-12
849 2.7189761915751899e-06 1.0524823864958043e-14 2.8000004523463394e-05 -4.0000009046926829e-06 2.8000001357039016e-05 0.0001411714883870342 -2.8234297677406814e-05 4.2351446516110336e-05 2.2009796721506265e-11 -4.4019593443012547e-12 6.6029390164518747e-12
850 1.9857423936634905e-06 4.0998441254793995e-15 2.8000008126068523e-05 -4.0000016252136989e-06 3.6000002437820569e-05 0.00024824434042496898 -4.964886808499375e-05 7.4473302127490821e-05 1.4071250634368241e-11 -2.8142501268736486e-12 4.2213751903104685e-12
851 1.705645682225712e-06 2.5981551397121384e-15 2.8000010668180328e-05 3.9999978663639399e-06 -3.5999996799545871e-05 0.00032075635358187271 -6.4151270716374789e-05 9.6226906074562055e-05 1.0921178626147403e-11 -2.1842357252294771e-12 3.2763535878442177e-12
852 1.8141758938474895e-06 3.1263442525202803e-15 2.8000009563449465e-05 3.9999980873100947e-06 -2.799999713096518e-05 0.0002895633278976415 -5.7912665579528304e-05 8.6868998369292276e-05 1.214926825943268e-11 -2.4298536518865355e-12 3.6447804778298067e-12
853 2.3782813183150755e-06 7.0434963787438937e-15 2.8000005823664165e-05 3.9999988352671507e-06 -1.999999825290072e-05 0.00018038108433055409 -3.6076216866110822e-05 5.4114325299166114e-05 1.8373399428791015e-11 -3.6746798857582034e-12 5.5120198286373063e-12
854 8.921539944723351e-07 3.718074565376058e-16 2.8000029052895146e-05 3.9999941894209684e-06 -1.1999991284131446e-05 0.00075693458395322401 -0.00015138691679064494 0.00022708037518596696 2.0452252809003107e-12 -4.0904505618006096e-13 6.1356758427009488e-13
855 2.709675842169744e-06 1.0417191325835575e-14 2.8000004553022038e-05 3.9999990893955917e-06 -3.9999986340933843e-06 0.00014206983473681495 -2.8413966947363e-05 4.2620950421044446e-05 2.1911579138943032e-11 -4.3823158277886046e-12 6.5734737416829057e-12
856 1.0008042546485445e-06 5.2486311214960469e-16 2.8000024962670663e-05 3.9999950074658715e-06 4.0000074888011965e-06 0.0006749653690416381 -0.00013499307380832748 0.00020248961071249162 3.0675656968834649e-12 -6.1351313937669446e-13 9.202697090650375e-13
857 2.4891268586605767e-06 8.0749476494536077e-15 2.8000005346311521e-05 3.999998930737692e-06 1.2000001603893447e-05 0.00016605888551056636 -3.32117771021132e-05 4.9817665653169887e-05 1.956559117606638e-11 -3.9131182352132778e-12 5.8696773528199146e-12
858 1.5762222036762715e-06 2.0504583174581104e-15 2.800001223836697e-05 3.9999975523266068e-06 2.0000003671510031e-05 0.00036422731914779837 -7.2845463829559679e-05 0.00010926819574434003 9.4468880472576156e-12 -1.8893776094515232e-12 2.8340664141772761e-12
859 2.1931286001536037e-06 5.5232018828947613e-15 2.8000006771958746e-05 3.9999986456082373e-06 2.8000002031587673e-05 0.0002085781719599374 -4.1715634391987621e-05 6.2573451587981147e-05 1.6360404729353464e-11 -3.2720809458706902e-12 4.9081214188060396e-12
860 1.7254564450292939e-06 2.6897420061175136e-15 2.8000010453393779e-05 3.9999979093212251e-06 3.6000003136018166e-05 0.00031473058321070162 -6.2946116642140354e-05 9.4419174963210375e-05 1.1145987199590321e-11 -2.2291974399180638e-12 3.3437961598770985e-12
861 1.2302532302227318e-06 9.7494959758402164e-16 2.8000018406542803e-05 1.1999996318691409e-05 -3.5999994478037123e-05 0.00052458879407663679 -0.00010491775881532783 0.00015737663822299139 5.5143774688631138e-12 -1.1028754937726171e-12 1.6543132406589293e-12
862 1.9142003506216468e-06 3.6724914776089472e-15 2.8000008684853746e-05 1.1999998263029232e-05 -2.7999997394543886e-05 0.00026440453153868794 -5.2880906307737533e-05 7.9321359461606512e-05 1.3272851620889963e-11 -2.6545703241779944e-12 3.9818554862669863e-12
863 1.603561049895946e-06 2.1590123108023243e-15 2.800001188068893e-05 1.1999997623862187e-05 -1.9999996435793299e-05 0.00035441550439665543 -7.0883100879331424e-05 0.00010632465131899672 9.7589868113268398e-12 -1.9517973622653629e-12 2.9276960433980501e-12
864 2.3495854126709589e-06 6.7916036641926958e-15 2.8000005957403803e-05 1.1999998808519248e-05 -1.1999998212778833e-05 0.00018437838621892681 -3.6875677243785393e-05 5.5313515865677937e-05 1.806322717683109e-11 -3.6126454353662175e-12 5.4189681530493282e-12
865 1.643712640379044e-06 2.3252856270054106e-15 2.8000011381585127e-05 1.1999997723682953e-05 -3.9999965855244451e-06 0.00034063438432405747 -6.812687686481156e-05 0.00010219031529721727 1.0216773038256231e-11 -2.043354607651245e-12 3.0650319114768691e-12
866 2.3396803766320096e-06 6.7060721244181032e-15 2.8000006004611115e-05 1.1999998799077777e-05 4.0000018013833204e-06 0.00018578773982357895 -3.7157547964715951e-05 5.5736321947073882e-05 1.7956013631981644e-11 -3.5912027263963255e-12 5.3868040895944883e-12
867 1.7199285183615344e-06 2.6639729779918023e-15 2.8000010512703148e-05 1.1999997897459364e-05 1.2000003153810958e-05 0.00031639637722416351 -6.3279275444832445e-05 9.4918913167248633e-05 1.1083284225409272e-11 -2.2166568450818589e-12 3.3249852676227881e-12
868 1.8075037108339482e-06 3.0919767176451749e-15 2.8000009626531346e-05 1.1999998074693711e-05 2.0000002887959415e-05 0.00029135780770213191 -5.8271561540426481e-05 8.7407342310639224e-05 1.2074026134564032e-11 -2.414805226912805e-12 3.622207840369215e-12
869 1.691804739203171e-06 2.5354166261587664e-15 2.8000010821986996e-05 1.1999997835602631e-05 2.8000003246596063e-05 0.00032505972354365527 -6.5011944708730885e-05 9.7517917063096341e-05 1.076395983639663e-11 -2.1527919672793285e-12 3.2291879509189915e-12
870 1.3554677432452198e-06 1.303965746079972e-15 2.8000015764742742e-05 1.1999996847051437e-05 3.6000004729422861e-05 0.00045800656469848156 -9.1601312939696217e-05 0.00013740196940954403 6.9260771249721257e-12 -1.3852154249944264e-12 2.0778231374916429e-12
871 1.3162402673063526e-06 1.193999489194399e-15 2.800001653395845e-05 1.9999996693208231e-05 -3.5999995039812338e-05 0.00047772750092439306 -9.5545500184878577e-05 0.00014331825027731786 6.4810367929535915e-12 -1.2962073585907187e-12 1.9443110378860781e-12
872 1.8943124618880473e-06 3.559208838842756e-15 2.8000008850025313e-05 1.9999998229994957e-05 -2.7999997344992438e-05 0.00026915772427111938 -5.3831544854223872e-05 8.0747317281335812e-05 1.3050119479040338e-11 -2.6100238958080684e-12 3.9150358437121032e-12
873 1.7446417013757645e-06 2.780464594776153e-15 2.8000010251213676e-05 1.999999794975722e-05 -1.9999996924635904e-05 0.00030904124669101963 -6.1808249338203813e-05 9.2712374007305936e-05 1.1363438502511397e-11 -2.2726877005022816e-12 3.4090315507534179e-12
874 2.6606090963525473e-06 9.861474067011599e-15 2.8000004713776522e-05 1.9999999057244678e-05 -1.1999998585867053e-05 0.00014694985781856177 -2.9389971563712321e-05 4.408495734556842e-05 2.1392486668475185e-11 -4.2784973336950379e-12 6.4177460005425585e-12
875 1.4589817763149314e-06 1.6261036482668153e-15 2.8000013956535854e-05 1.9999997208692869e-05 -3.9999958130392233e-06 0.00041059936300879771 -8.2119872601759666e-05 0.00012317980890263962 8.1067424380095308e-12 -1.6213484876019043e-12 2.4320227314028549e-12
876 1.9405643896678647e-06 3.8263332798801785e-15 2.8000008472662347e-05 1.9999998305467504e-05 4.0000025417987034e-06 0.00025828239511483774 -5.1656479022967879e-05 7.7484718534451467e-05 1.3567588031270083e-11 -2.7135176062540103e-12 4.0702764093810212e-12
877 3.4518664832040718e-06 2.1535779177085034e-14 2.8000002859917059e-05 1.9999999428016538e-05 1.2000000857975087e-05 9.0099682169056587e-05 -1.8019936433811372e-05 2.7029904650716949e-05 2.9603252930001104e-11 -5.9206505860002199e-12 8.8809758790003323e-12
878 1.5144521526855962e-06 1.8187176978404169e-15 2.8000013104237757e-05 1.9999997379152398e-05 2.0000003931271346e-05 0.00038775514269108881 -7.755102853821761e-05 0.00011632654280732639 8.7409443347057288e-12 -1.7481888669411481e-12 2.6222833004117218e-12
879 2.3169441549445473e-06 6.5124637781427101e-15 2.8000006115061531e-05 1.9999998776987699e-05 2.8000001834518465e-05 0.0001890819063595634 -3.7816381271912667e-05 5.6724571907868856e-05 1.7709617998583255e-11 -3.5419235997166514e-12 5.3128853995749808e-12
880 1.9544386503906593e-06 3.908991714408857e-15 2.8000008363987504e-05 1.9999998327202501e-05 3.600000250919614e-05 0.00025514003693584772 -5.102800738716955e-05 7.6542011080754424e-05 1.3722453224305549e-11 -2.7444906448611095e-12 4.116735967291662e-12
881 1.3381471008600657e-06 1.2546141889613616e-15 2.8000016098250692e-05 2.799999678034984e-05 -3.5999995170524734e-05 0.00046659012403959274 -9.3318024807918893e-05 0.00013997703721187765 6.7293402119459835e-12 -1.3458680423891925e-12 2.0188020635837958e-12
882 3.1513410156959447e-06 1.6386448154081636e-14 2.8000003410280978e-05 2.7999999317943829e-05 -2.7999998976915689e-05 0.00010710708842168466 -2.1421417684336971e-05 3.213212652650551e-05 2.6521037171903156e-11 -5.304207434380629e-12 7.9563111515709427e-12
883 2.7343110818085223e-06 1.0703908553122827e-14 2.8000004475339254e-05 2.7999999104932153e-05 -1.9999998657398221e-05 0.00013970821061579051 -2.794164212315803e-05 4.1912463184737162e-05 2.2171623947375309e-11 -4.4343247894750645e-12 6.6514871842125899e-12
884 1.4942943236509242e-06 1.7470569509278235e-15 2.8000013405353385e-05 2.7999997318929329e-05 -1.1999995978394017e-05 0.00039586191961369033 -7.9172383922737602e-05 0.0001187585758841068 8.5104574272905421e-12 -1.7020914854581151e-12 2.5531372281871663e-12
885 1.1342169163345158e-06 7.6398878472502137e-16 2.8000020845208222e-05 2.7999995830958379e-05 -3.9999937464375152e-06 0.00058308935056479211 -0.00011661787011295867 0.00017492680516943785 4.458617060321309e-12 -8.917234120642595e-13 1.3375851180963906e-12
886 2.5303590076986036e-06 8.4829137677041905e-15 2.8000005183314911e-05 2.7999998963336952e-05 4.0000015549944397e-06 0.00016114892861173003 -3.2229785722345998e-05 4.8344678583519111e-05 2.0006738245809719e-11 -4.001347649161944e-12 6.0020214737429124e-12
887 2.5370599438944112e-06 8.5504861521385385e-15 2.800000515751567e-05 2.799999896849688e-05 1.2000001547254675e-05 0.00016037087173737495 -3.2074174347474898e-05 4.8111261521212225e-05 2.0078317024518959e-11 -4.0156634049037935e-12 6.0234951073556926e-12
888 2.0093233265474273e-06 4.2476438986133441e-15 2.8000007953252321e-05 2.7999998409349533e-05 2.0000002385975676e-05 0.00024322163288061484 -4.864432657612275e-05 7.2966489864184392e-05 1.4333431457119767e-11 -2.8666862914239579e-12 4.3000294371359301e-12
889 1.606761726669744e-06 2.171966172260895e-15 2.8000011839781013e-05 2.7999997632043789e-05 2.8000003551934293e-05 0.00035328988883929694 -7.0657977767858918e-05 0.00010598696665178857 9.7955063748708605e-12 -1.9591012749741792e-12 2.9386519124612652e-12
890 1.7526749520910882e-06 2.8190498949054901e-15 2.8000010168211301e-05 2.7999997966357712e-05 3.6000003050463407e-05 0.00030670073986542151 -6.1340147973084353e-05 9.2010221959626279e-05 1.1454411381408743e-11 -2.2908822762817472e-12 3.4363234144226258e-12
891 1.3676298403068712e-06 1.3393815943217417e-15 2.8000015536173774e-05 3.5999996892765106e-05 -3.5999995339147812e-05 0.00045209470536154012 -9.0418941072307985e-05 0.00013562841160846196 7.0644087593711993e-12 -1.4128817518742401e-12 2.1193226278113597e-12
892 1.9554239212310721e-06 3.9149064932399048e-15 2.8000008356346698e-05 3.5999998328730656e-05 -2.7999997493095983e-05 0.0002549189258117289 -5.0983785162345713e-05 7.6475677743518657e-05 1.3733444497754425e-11 -2.7466888995508862e-12 4.1200333493263269e-12
893 1.7453211883936622e-06 2.7837145896256318e-15 2.8000010244155641e-05 3.5999997951168892e-05 -1.9999996926753361e-05 0.00030884233225251368 -6.1768466450502717e-05 9.2652699675754339e-05 1.1371135194917742e-11 -2.2742270389835488e-12 3.411340558475317e-12
894 1.3433740857041237e-06 1.2693737738061465e-15 2.8000015996600952e-05 3.5999996800679804e-05 -1.1999995201019724e-05 0.00046397930466107534 -9.279586093221542e-05 0.00013919379139832274 6.7886753409917925e-12 -1.3577350681983546e-12 2.0366026022975365e-12
895 1.8367965121468236e-06 3.2447538801886752e-15 2.8000009353938725e-05 3.5999998129212303e-05 -3.9999971938183949e-06 0.00028359193787594626 -5.671838757518927e-05 8.5077581362784125e-05 1.2404094086409169e-11 -2.4808188172818342e-12 3.7212282259227475e-12
896 1.1720789377370107e-06 8.430808166486083e-16 2.8000019836144195e-05 3.5999996032771254e-05 4.0000059508432624e-06 0.00055923801906782456 -0.00011184760381356471 0.00016777140572034688 4.870908561986803e-12 -9.7418171239736293e-13 1.461272568596046e-12
897 2.2356750193667265e-06 5.850926532247727e-15 2.8000006535095703e-05 3.5999998692980912e-05 1.2000001960528711e-05 0.00020156716081299201 -4.0313432162598545e-05 6.0470148243897879e-05 1.6825464811185273e-11 -3.3650929622370513e-12 5.0476394433555762e-12
898 2.1650350584928744e-06 5.3136558401122679e-15 2.8000006935275111e-05 3.5999998612944925e-05 2.0000002080582531e-05 0.0002133997486888506 -4.2679949737770046e-05 6.4019924606655113e-05 1.6052484578608239e-11 -3.2104969157216479e-12 4.8157453735824706e-12
899 2.0817834637436428e-06 4.7239499293678713e-15 2.8000007454312168e-05 3.5999998509137507e-05 2.8000002236293639e-05 0.00022865518103239106 -4.5731036206478103e-05 6.8596554309717029e-05 1.5136017483758577e-11 -3.0272034967517181e-12 4.5408052451275774e-12
900 1.8421492471316917e-06 3.2732039085535684e-15 2.8000009305326193e-05 3.5999998138934798e-05 3.6000002791597819e-05 0.00028220388781606927 -5.6440777563213783e-05 8.4661166344820969e-05 1.2464332780697148e-11 -2.4928665561394311e-12 3.7392998342091402e-12
901 1.6741093785165795e-06 2.4566885992295195e-15 3.6000011023254725e-05 -3.6000002204650878e-05 -3.5999996693023631e-05 0.00033067629568320884 -6.6135259136641944e-05 9.9202888704962299e-05 1.0562782466861523e-11 -2.1125564933723018e-12 3.1688347400584618e-12
902 1.4066090571625892e-06 1.457198954053195e-15 3.6000014833492346e-05 -3.6000002966698543e-05 -2.7999995549952258e-05 0.00043377294523555684 -8.6754589047111411e-05 0.00013013188357066682 7.5085943191416053e-12 -1.5017188638283207e-12 2.2525782957424843e-12
903 3.4888977222314693e-06 2.2236341587693525e-14 3.6000002801358349e-05 -3.600000056027176e-05 -1.9999999159592499e-05 8.8283702448814334e-05 -1.7656740489762865e-05 2.6485110734644325e-05 2.9980519463740986e-11 -5.9961038927481965e-12 8.9941558391222932e-12
904 1.9997844841183427e-06 4.1874362244779097e-15 3.6000008022512695e-05 -3.6000001604502536e-05 -1.1999997593246188e-05 0.0002452360133804142 -4.9047202676082893e-05 7.3570804014124079e-05 1.422743406896726e-11 -2.8454868137934516e-12 4.2682302206901818e-12
905 1.3609690074357227e-06 1.319906988862926e-15 3.6000015660789337e-05 -3.6000003132157803e-05 -3.9999953017632085e-06 0.00045532077230760767 -9.1064154461521299e-05 0.00013659623169228258 6.9886305985461204e-12 -1.3977261197092269e-12 2.0965891795638313e-12
906 2.0415884067782528e-06 4.4555692190158543e-15 3.6000007725287242e-05 -3.6000001545057472e-05 4.0000023175861727e-06 0.00023657825291429943 -4.7315650582859602e-05 7.0973475874289789e-05 1.4691375507887706e-11 -2.9382751015775464e-12 4.4074126523663117e-12
907 1.6807086910570684e-06 2.4858559570666689e-15 3.600001094757721e-05 -3.600000218951528e-05 1.2000003284273161e-05 0.0003285663996601758 -6.5713279932035193e-05 9.8569919898052559e-05 1.0637832158568758e-11 -2.12756643171375e-12 3.1913496475706282e-12
908 2.2669422143260758e-06 6.0998614659991754e-15 3.6000006368649458e-05 -3.6000001273729929e-05 2.0000001910594853e-05 0.0001966276616038279 -3.9325532320765471e-05 5.8988298481148345e-05 1.716627202618185e-11 -3.433254405236373e-12 5.1498816078545549e-12
909 2.1784043053008598e-06 5.4127015625288367e-15 3.6000006856848769e-05 -3.6000001371369748e-05 2.8000002057054644e-05 0.00021108564898215116 -4.2217129796430364e-05 6.3325694694645363e-05 1.6199102461939625e-11 -3.2398204923879222e-12 4.859730738581886e-12
910 1.1864469662013441e-06 8.7446737807295931e-16 3.6000019469863406e-05 -3.6000003893972561e-05 3.6000005840959079e-05 0.00055045534366858452 -0.00011009106873371664 0.00016513660310057534 5.0288175131263912e-12 -1.0057635026252808e-12 1.508645253937917e-12
911 1.7622901368455437e-06 2.8657008601813834e-15 3.6000010070119612e-05 -2.8000002014023876e-05 -3.5999996978964221e-05 0.00030393113070793071 -6.0786226141586133e-05 9.1179339212378946e-05 1.1563236699649158e-11 -2.3126473399298321e-12 3.4689710098947515e-12
912 1.7309016342733958e-06 2.7152872869356908e-15 3.6000010395437096e-05 -2.8000002079087468e-05 -2.7999996881368832e-05 0.00031310139188961325 -6.2620278377922635e-05 9.3930417566883879e-05 1.1207730974094344e-11 -2.2415461948188691e-12 3.3623192922283039e-12
913 2.9676941644738154e-06 1.3685354462123239e-14 3.6000003827320447e-05 -2.8000000765464087e-05 -1.9999998851803856e-05 0.00011992172523899519 -2.3984345047799008e-05 3.5976517571698542e-05 2.4617237120002173e-11 -4.923447424000436e-12 7.3851711360006523e-12
914 3.4456713355565817e-06 2.1420034815320596e-14 3.6000002869890646e-05 -2.8000000573978188e-05 -1.1999999139032797e-05 9.0408856676348924e-05 -1.808177133526978e-05 2.7122657002904723e-05 2.9540087461152649e-11 -5.9080174922305315e-12 8.8620262383457948e-12
915 2.2035740783337841e-06 5.6024964121079835e-15 3.6000006712662335e-05 -2.8000001342532489e-05 -3.9999979862012922e-06 0.00020682504205251964 -4.1365008410503936e-05 6.2047512615755749e-05 1.6474721782742102e-11 -3.2949443565484199e-12 4.9424165348226327e-12
916 1.7116788389388496e-06 2.6258231156359181e-15 3.6000010602109198e-05 -2.800000212042188e-05 4.0000031806327428e-06 0.00031890476157098933 -6.3780952314197582e-05 9.5671428471296447e-05 1.0989669739333415e-11 -2.197933947866687e-12 3.2969009218000283e-12
917 1.372002391541894e-06 1.3522694212587353e-15 3.600001545510539e-05 -2.8000003091021084e-05 1.2000004636531619e-05 0.00044999223161255929 -8.9998446322511719e-05 0.00013499766948376783 7.1141761711010386e-12 -1.4228352342202098e-12 2.1342528513303097e-12
918 1.4932385241498221e-06 1.7433563970275185e-15 3.6000013421389706e-05 -2.8000002684277913e-05 2.0000004026416907e-05 0.00039629256151715381 -7.9258512303430613e-05 0.0001188877684551459 8.4983852187427961e-12 -1.6996770437485621e-12 2.5495155656228428e-12
919 2.8356415659917815e-06 1.1938578618060175e-14 3.6000004175509013e-05 -2.8000000835101803e-05 2.8000001252652749e-05 0.00013057233252061569 -2.6114466504123076e-05 3.917169975618468e-05 2.3237333976143666e-11 -4.6474667952287362e-12 6.971200192843101e-12
920 1.3861295064702962e-06 1.3944728002344298e-15 3.600001519711062e-05 -2.8000003039422148e-05 3.6000004559133176e-05 0.00044328156875765205 -8.8656313751530629e-05 0.00013298447062729503 7.2750787564357235e-12 -1.4550157512871417e-12 2.1825236269307243e-12
921 1.845212175280861e-06 3.2895580673439902e-15 3.6000009277672158e-05 -2.0000001855534506e-05 -3.5999997216698308e-05 0.00028141385256149899 -5.6282770512300123e-05 8.4424155768449873e-05 1.2498791818448497e-11 -2.4997583636896938e-12 3.7496375455345446e-12
922 1.4384804311000883e-06 1.5585132427771021e-15 3.6000014291055116e-05 -2.0000002858211072e-05 -2.7999995712683435e-05 0.00041947902040164213 -8.3895804080328371e-05 0.00012584370612049237 7.8724711911317992e-12 -1.5744942382263606e-12 2.3617413573395432e-12
923 1.8309303600286578e-06 3.2137648809622351e-15 3.6000009407633602e-05 -2.0000001881526705e-05 -1.9999997177709932e-05 0.00028512400569325548 -5.7024801138651243e-05 8.5537201707976579e-05 1.2338050561382606e-11 -2.4676101122765194e-12 3.7014151684147839e-12
924 2.0369649720020834e-06 4.4253671213088473e-15 3.6000007757368262e-05 -2.0000001551473602e-05 -1.1999997672789527e-05 0.00023751438141411674 -4.7502876282823322e-05 7.1254314424235216e-05 1.4640139846189039e-11 -2.9280279692378074e-12 4.3920419538567068e-12
925 1.2681172279007341e-06 1.0677678253642439e-15 3.6000017548658409e-05 -2.0000003509731708e-05 -3.9999947354024888e-06 0.00050332469943180087 -0.00010066493988636005 0.00015099740982954044 5.9382028693655243e-12 -1.1876405738731063e-12 1.7814608608096555e-12
926 1.8052442599971658e-06 3.080395928086431e-15 3.6000009648028464e-05 -2.0000001929605691e-05 4.0000028944085091e-06 0.00029196896372118823 -5.8393792744237626e-05 8.7590689116356311e-05 1.2048538307976823e-11 -2.4097076615953654e-12 3.6145614923930495e-12
927 3.6369470930568832e-06 2.5188921472003462e-14 3.600000258417e-05 -2.0000000516833976e-05 1.2000000775250998e-05 8.1537722745990269e-05 -1.630754454919808e-05 2.4461316823797064e-05 3.1483854999981156e-11 -6.2967709999962314e-12 9.445156499994348e-12
928 3.9977678943152706e-06 3.3454254002586413e-14 3.6000002149075976e-05 -2.0000000429815158e-05 2.0000000644722795e-05 6.7973018422861741e-05 -1.3594603684572323e-05 2.0391905526858512e-05 3.5118218277918452e-11 -7.0236436555836907e-12 1.0535465483375532e-11
929 1.6752054574566133e-06 2.4615171152970581e-15 3.6000011010634151e-05 -2.0000002202126853e-05 2.8000003303190237e-05 0.00033032459682661369 -6.6064919365322502e-05 9.9097379047983895e-05 1.0575249283634514e-11 -2.1150498567269065e-12 3.1725747850903571e-12
930 1.6643484220976796e-06 2.4139672186496517e-15 3.6000011136556156e-05 -2.0000002227311277e-05 3.6000003340966922e-05 0.00033383072455587869 -6.6766144911175782e-05 0.00010014921736676338 1.0451729791568122e-11 -2.0903459583136223e-12 3.1355189374704381e-12
931 2.050135036705258e-06 4.5117603743088432e-15 3.6000007666488396e-05 -1.2000001533297649e-05 -3.599999770005356e-05 0.00023486144595960429 -4.6972289191921058e-05 7.0458433787881628e-05 1.478603763024399e-11 -2.9572075260487942e-12 4.4358112890731899e-12
932 1.3104661889006912e-06 1.1783548214157782e-15 3.6000016651458039e-05 -1.2000003330291582e-05 -2.799999500456262e-05 0.00048071604447466691 -9.6143208894933501e-05 0.00014421481334239995 6.4157011553163323e-12 -1.283140231063265e-12 1.9247103465949009e-12
933 1.8604720860159418e-06 3.3718488437171532e-15 3.6000009141640001e-05 -1.2000001828327978e-05 -1.9999997257508042e-05 0.00027752314864189106 -5.5504629728378122e-05 8.3256944592566983e-05 1.2670355626471332e-11 -2.5340711252942677e-12 3.8011066879414045e-12
934 1.0596218753395781e-06 6.2294738746322288e-16 3.6000023033108028e-05 -1.2000004606621618e-05 -1.1999993090067574e-05 0.00063302544144685656 -0.00012660508828937119 0.00018990763243405693 3.6667020989614526e-12 -7.3334041979229202e-13 1.1000106296884361e-12
935 1.5828797650114929e-06 2.0765500545154842e-15 3.6000012149882521e-05 -1.2000002429976532e-05 -3.9999963550352284e-06 0.0003618050396187572 -7.2361007923751181e-05 0.00010854151188562697 9.5229156475710466e-12 -1.9045831295142131e-12 2.8568746942713162e-12
936 1.8572361715644293e-06 3.3542854822682228e-15 3.6000009170245652e-05 -1.2000001834049096e-05 4.000002751073659e-06 0.00027834192135092566 -5.5668384270185092e-05 8.350257640527754e-05 1.2633991111959973e-11 -2.5267982223919955e-12 3.7901973335879949e-12
937 2.1909343244779672e-06 5.5066401922304733e-15 3.6000006784512047e-05 -1.2000001356902424e-05 1.2000002035353601e-05 0.00020894914422011992 -4.1789828844023942e-05 6.2684743266036011e-05 1.6336378468881861e-11 -3.2672756937763728e-12 4.9009135406645571e-12
938 9.8923908077164625e-07 5.0687680485551505e-16 3.6000025364761114e-05 -1.2000005072952236e-05 2.00000076094283e-05 0.00068344856674269793 -0.00013668971334853923 0.00020503457002280881 2.9530199634742389e-12 -5.9060399269485127e-13 8.8590598904227615e-13
939 1.9943796262405484e-06 4.1535755005180078e-15 3.6000008062144655e-05 -1.200000161242891e-05 2.8000002418643441e-05 0.0002463878282943194 -4.9277565658863807e-05 7.3916348488295961e-05 1.4167338879907389e-11 -2.8334677759814797e-12 4.2502016639722122e-12
940 2.1462913786561464e-06 5.1768390825670797e-15 3.6000007047444409e-05 -1.2000001409488915e-05 3.6000002114233438e-05 0.00021670539280438459 -4.3341078560876856e-05 6.501161784131521e-05 1.5846668729970423e-11 -3.1693337459940858e-12 4.7540006189911295e-12
941 1.2366447078543886e-06 9.9022400937439111e-16 3.6000018257871331e-05 -4.0000036515742532e-06 -3.5999994522638537e-05 0.00052092877810208194 -0.00010418575562041608 0.00015627863343062467 5.585678366312605e-12 -1.117135673262524e-12 1.6757035098937791e-12
942 1.5846453520085959e-06 2.0835065288485727e-15 3.6000012126567526e-05 -4.0000024253135246e-06 -2.7999996362029734e-05 0.00036116623645155924 -7.2233247290311883e-05 0.0001083498709354679 9.5430756165268118e-12 -1.9086151233053614e-12 2.8629226849580421e-12
943 2.090087547842132e-06 4.7807062119614374e-15 3.6000007400051662e-05 -4.0000014800103424e-06 -1.9999997779984465e-05 0.00022706523238184143 -4.5413046476368171e-05 6.8119569714552338e-05 1.5227702135555231e-11 -3.0455404271110475e-12 4.5683106406665705e-12
944 2.1547450525091941e-06 5.2382509319118463e-15 3.6000006996530228e-05 -4.0000013993060503e-06 -1.1999997901040951e-05 0.00021520554155016978 -4.3041108310034007e-05 6.4561662465050705e-05 1.593953201070952e-11 -3.1879064021419028e-12 4.7818596032128593e-12
945 1.8211212883692451e-06 3.1623886005097106e-15 3.6000009498411932e-05 -4.000001899682385e-06 -3.9999971504764525e-06 0.0002877115391774444 -5.7542307835488605e-05 8.6313461753233101e-05 1.2227553541226207e-11 -2.4455107082452464e-12 3.6682660623678658e-12
946 1.8529034718441074e-06 3.3308648192014473e-15 3.6000009208748572e-05 -4.0000018417497131e-06 4.0000027626245685e-06 0.0002794434689099864 -5.588869378199708e-05 8.3833040672995552e-05 1.258528751460489e-11 -2.5170575029209819e-12 3.7755862543814726e-12
947 1.8808362172384493e-06 3.4837867184495881e-15 3.6000008964529159e-05 -4.0000017929058327e-06 1.2000002689358746e-05 0.00027244648317566758 -5.4489296635133238e-05 8.1733944952700179e-05 1.2899002078248389e-11 -2.5798004156496826e-12 3.8697006234745177e-12
948 1.8585627610312498e-06 3.3614783298913445e-15 3.6000009158502814e-05 -4.0000018317005956e-06 2.0000002747550839e-05 0.00027800585376896455 -5.5601170753792811e-05 8.3401756130689145e-05 1.2648900096053057e-11 -2.5297800192106127e-12 3.7946700288159207e-12
949 1.5103529046132578e-06 1.8039891769988506e-15 3.6000013164701453e-05 -4.0000026329403074e-06 2.8000003949410436e-05 0.00038938611173461025 -7.787722234692207e-05 0.00011681583352038288 8.6940742324004925e-12 -1.738814846480097e-12 2.608222269720149e-12
950 2.4820417742363207e-06 8.0061898133322905e-15 3.6000005375075474e-05 -4.0000010750151124e-06 3.6000001612522596e-05 0.00016692431722053249 -3.3384863444106623e-05 5.0077295166159901e-05 1.9489662913199484e-11 -3.8979325826398939e-12 5.8468988739598424e-12
951 3.0883663354100024e-06 1.5423575073604312e-14 3.600000354537025e-05 3.9999992909259472e-06 -3.5999998936388908e-05 0.00011126495658694254 -2.2252991317388555e-05 3.337948697608279e-05 2.5870084980735711e-11 -5.174016996147141e-12 7.7610254942207103e-12
952 2.4172196993627519e-06 7.3951501633627336e-15 3.600000564910781e-05 3.9999988701784226e-06 -2.7999998305267687e-05 0.00017515370641922763 -3.5030741283845608e-05 5.25461119257681e-05 1.8793258654359804e-11 -3.7586517308719602e-12 5.637977596307944e-12
953 2.2036994338752228e-06 5.6034526004172935e-15 3.600000671195532e-05 3.9999986576089323e-06 -1.9999997986413428e-05 0.00020680413073835143 -4.1360826147670304e-05 6.2041239221505463e-05 1.6476093134534982e-11 -3.2952186269069968e-12 4.9428279403604922e-12
954 1.4301405534572505e-06 1.5315627239415872e-15 3.6000014430315173e-05 3.9999971139369673e-06 -1.1999995670905488e-05 0.00042316111054030545 -8.4632222108061136e-05 0.00012694833316209185 7.7772102089966408e-12 -1.5554420417993278e-12 2.3331630626989893e-12
955 1.6207068529999303e-06 2.2290100561471153e-15 3.6000011663848741e-05 3.999997667230254e-06 -3.9999965008453798e-06 0.00034844096457920703 -6.9688192915841234e-05 0.0001045322893737619 9.9545671551067595e-12 -1.990913431021355e-12 2.9863701465320308e-12
956 1.1577170808590325e-06 8.1246740165796705e-16 3.6000020211293828e-05 3.9999959577412244e-06 4.0000060633881455e-06 0.00056816472372617742 -0.00011363294474523552 0.00017044941711785301 4.7138307768704262e-12 -9.4276615537408524e-13 1.4141492330611305e-12
957 1.2812762650215954e-06 1.1013540818792529e-15 3.6000017263049559e-05 3.999996547390091e-06 1.2000005178914835e-05 0.0004961683337340551 -9.923366674681095e-05 0.00014885050012021695 6.086227754013559e-12 -1.2172455508027127e-12 1.8258683262040624e-12
958 1.6812183381141014e-06 2.4881180267296247e-15 3.6000010941763494e-05 3.9999978116472988e-06 2.0000003282529015e-05 0.00032840421656958298 -6.568084331391655e-05 9.8521264970874995e-05 1.0643626940480758e-11 -2.1287253880961522e-12 3.193088082144225e-12
959 1.9877804957340344e-06 4.1124809307207932e-15 3.6000008110918717e-05 3.9999983778162604e-06 2.8000002433275582e-05 0.00024780449612640728 -4.9560899225281381e-05 7.4341348837922251e-05 1.4093930181935313e-11 -2.8187860363870637e-12 4.2281790545805927e-12
960 1.7458876052660769e-06 2.7864257032329281e-15 3.6000010238277397e-05 3.9999979523445197e-06 3.6000003071483234e-05 0.00030867665201428796 -6.1735330402857503e-05 9.2602995604286017e-05 1.1377550862953889e-11 -2.2755101725907791e-12 3.4132652588861729e-12
961 2.8808651058087722e-06 1.2518935218759722e-14 3.600000405118376e-05 1.1999999189763223e-05 -3.5999998784644643e-05 0.00012677446902689939 -2.5354893805379788e-05 3.8032340708069679e-05 2.3711002231626913e-11 -4.742200446325385e-12 7.1133006694880771e-12
962 1.9946429254413695e-06 4.1552207903373102e-15 3.600000806020741e-05 1.199999838795852e-05 -2.7999997581937779e-05 0.00024633154111678389 -4.9266308223356647e-05 7.3899462335035143e-05 1.4170267027502642e-11 -2.8340534055005305e-12 4.2510801082507911e-12
963 2.6515598551523595e-06 9.7611936276153229e-15 3.6000004744334585e-05 1.1999999051133068e-05 -1.999999857669962e-05 0.0001478764302393732 -2.9575286047874691e-05 4.4362929071812159e-05 2.1296581073636934e-11 -4.2593162147273857e-12 6.388974322091074e-12
964 2.0843346861950314e-06 4.7413388022493423e-15 3.6000007437580751e-05 1.1999998512483793e-05 -1.1999997768725778e-05 0.00022816503500794783 -4.5633007001589631e-05 6.8449510502384257e-05 1.5164191704541172e-11 -3.0328383409082338e-12 4.5492575113623542e-12
965 1.2311599707052219e-06 9.7710690463039616e-16 3.6000018385353604e-05 1.1999996322929289e-05 -3.9999944843939268e-06 0.00052406780111465272 -0.00010481356022293049 0.00015722034033439583 5.5244862794878295e-12 -1.104897255897567e-12 1.6573458838463489e-12
966 1.6083754095908063e-06 2.1785167126419259e-15 3.6000011819231799e-05 1.1999997636153623e-05 4.0000035457695661e-06 0.00035272419564610214 -7.0544839129220232e-05 0.00010581725869383054 9.8139167612919431e-12 -1.9627833522583923e-12 2.9441750283875841e-12
967 2.2117469619257193e-06 5.6650655640471739e-15 3.6000006666792865e-05 1.1999998666641433e-05 1.2000002000037885e-05 0.0002054679653350698 -4.1093593067013923e-05 6.1640389600520871e-05 1.656410292413468e-11 -3.3128205848269375e-12 4.9692308772404053e-12
968 1.3429506467891236e-06 1.26817381129379e-15 3.6000016004802919e-05 1.1999996799039386e-05 2.0000004801440941e-05 0.00046419014546414161 -9.2838029092828144e-05 0.00013925704363924236 6.7838674006045458e-12 -1.3567734801209115e-12 2.0351602201813649e-12
969 1.859912014367879e-06 3.3688046026753218e-15 3.6000009146581835e-05 1.1999998170683634e-05 2.8000002743974525e-05 0.00027766462221878166 -5.5532924443756093e-05 8.3299386665634464e-05 1.2664062285742401e-11 -2.5328124571484841e-12 3.7992186857227193e-12
970 3.1231651209418101e-06 1.595083637165562e-14 3.6000003469763438e-05 1.1999999306047281e-05 3.600000104092909e-05 0.00010893869531497284 -2.178773906299453e-05 3.2681608594491881e-05 2.6230024916604372e-11 -5.2460049833208752e-12 7.86900747498131e-12
971 2.6540340181740143e-06 9.7885435586133407e-15 3.6000004735950619e-05 1.9999999052809816e-05 -3.599999857921482e-05 0.00014762225353954161 -2.9524450707908336e-05 4.4286676061862548e-05 2.132280807762024e-11 -4.2645616155240474e-12 6.3968424232860703e-12
972 1.6325837069028243e-06 2.2783738960711856e-15 3.6000011516907905e-05 1.9999997696618402e-05 -2.7999996544927644e-05 0.00034438116272545534 -6.8876232545091482e-05 0.00010331434881763709 1.0089965313024353e-11 -2.0179930626048646e-12 3.0269895939072982e-12
973 1.0672455074737749e-06 6.3649006381821912e-16 3.6000022796639767e-05 1.9999995440672111e-05 -1.9999993161008077e-05 0.00062774832828778261 -0.00012554966565755645 0.00018832449848633467 3.746162811148165e-12 -7.4923256222963361e-13 1.1238488433444501e-12
974 1.6206481208826622e-06 2.2287677364413595e-15 3.6000011664582021e-05 1.9999997667083539e-05 -1.1999996500625413e-05 0.00034846119949332653 -6.9692239898665314e-05 0.00010453835984799778 9.9538974309364624e-12 -1.9907794861872929e-12 2.9861692292809419e-12
975 1.9814518342590832e-06 4.0733261172433044e-15 3.6000008158095402e-05 1.9999998368380896e-05 -3.999997552571368e-06 0.00024917388291481114 -4.9834776582962186e-05 7.475216487444353e-05 1.4023494355202323e-11 -2.8046988710404654e-12 4.2070483065606939e-12
976 1.4567690209463027e-06 1.6187162046661419e-15 3.6000013992115451e-05 1.9999997201576897e-05 4.0000041976346493e-06 0.00041154613756686832 -8.2309227513373756e-05 0.00012346384127006048 8.0814515034084225e-12 -1.6162903006816832e-12 2.4244354510225268e-12
977 1.8329810054199902e-06 3.2245752473983869e-15 3.6000009388813282e-05 1.9999998122237394e-05 1.2000002816643933e-05 0.00028458713742075299 -5.6917427484150567e-05 8.5376141226225881e-05 1.2361140753364878e-11 -2.4722281506729769e-12 3.7083422260094621e-12
978 1.1000226469480124e-06 6.9695301543627101e-16 3.6000021813922719e-05 1.999999563721542e-05 2.0000006544176766e-05 0.00060550389784020352 -0.00012110077956804082 0.00018165116935206106 4.0918283029733615e-12 -8.1836566059467124e-13 1.2275484908920083e-12
979 2.1839234858535288e-06 5.4539465628166066e-15 3.6000006824848596e-05 1.9999998635030365e-05 2.8000002047454548e-05 0.00021014074848619446 -4.2028149697238917e-05 6.3042224545858291e-05 1.6259585781599248e-11 -3.2519171563198482e-12 4.8778757344797751e-12
980 1.286296931103056e-06 1.1143518098593373e-15 3.600001715572465e-05 1.9999996568855104e-05 3.6000005146717383e-05 0.0004934692819880338 -9.8693856397606746e-05 0.00014804078459641046 6.142792151786351e-12 -1.2285584303572706e-12 1.842837645535901e-12
981 2.8878068424174468e-06 1.2609650387144783e-14 3.6000004032584739e-05 2.7999999193483051e-05 -3.5999998790224591e-05 0.00012620582450078668 -2.5241164900157383e-05 3.7861747350236027e-05 2.3783606367032835e-11 -4.7567212734065657e-12 7.1350819101098485e-12
982 1.2580686687944073e-06 1.0425854565574758e-15 3.6000017771035302e-05 2.7999996445792968e-05 -2.7999994668689323e-05 0.000508870152838089 -0.00010177403056761829 0.0001526610458514268 5.8254057028192382e-12 -1.1650811405638422e-12 1.74762171084577e-12
983 1.7321992338854897e-06 2.7213985488298525e-15 3.6000010381693573e-05 2.7999997923661258e-05 -1.9999996885491913e-05 0.00031271485084328245 -6.2542970168656469e-05 9.3814455252984867e-05 1.1222441579438523e-11 -2.2444883158877054e-12 3.366732473831554e-12
984 2.4382894221758927e-06 7.5902203872611085e-15 3.6000005557833593e-05 2.7999998888433235e-05 -1.1999998332649915e-05 0.00017241579726235337 -3.4483159452470679e-05 5.1724739178705971e-05 1.9019962925682805e-11 -3.8039925851365621e-12 5.705988877704842e-12
985 2.0264531657053335e-06 4.3572084314954033e-15 3.6000007831028836e-05 2.7999998433794193e-05 -3.999997650691347e-06 0.00023966230426458209 -4.7932460852916458e-05 7.1898691279374517e-05 1.4523581074193423e-11 -2.9047162148386835e-12 4.3570743222580281e-12
986 1.3120119464931615e-06 1.182529519535924e-15 3.6000016619892224e-05 2.7999996676021568e-05 4.0000049859676424e-06 0.00047991380718978376 -9.5982761437956622e-05 0.00014397414215693461 6.4331870703745703e-12 -1.2866374140749159e-12 1.9299561211123773e-12
987 2.7557237112288758e-06 1.0957352709593576e-14 3.6000004409394082e-05 2.7999999118121208e-05 1.2000001322818215e-05 0.000137701674396953 -2.754033487939064e-05 4.131050231908592e-05 2.2397343636468008e-11 -4.4794687272935995e-12 6.7192030909404013e-12
988 2.1430875672507973e-06 5.1536909617144071e-15 3.6000007066881017e-05 2.7999998586623781e-05 2.0000002120064329e-05 0.00021727770012012993 -4.3455540024025887e-05 6.5183310036039162e-05 1.5811458927075981e-11 -3.1622917854151984e-12 4.7434376781227903e-12
989 1.2535009683405528e-06 1.0312706162657303e-15 3.6000017873365895e-05 2.7999996425326805e-05 2.8000005362009779e-05 0.0005114141474860728 -0.00010228282949721497 0.00015342424424582174 5.7742048920148505e-12 -1.1548409784029652e-12 1.7322614676044562e-12
990 1.4149569048441568e-06 1.4832974863226938e-15 3.6000014688706571e-05 2.7999997062258665e-05 3.6000004406611978e-05 0.00042997040115594847 -8.5994080231189602e-05 0.00012899112034678523 7.6038542093160895e-12 -1.5207708418632189e-12 2.2811562627948166e-12
991 9.3555568948870781e-07 4.2875337828642416e-16 3.6000027333672849e-05 3.5999994533265419e-05 -3.5999991799898148e-05 0.00072366797646690407 -0.00014473359529338099 0.00021710039294007137 2.4380981426661953e-12 -4.8761962853323755e-13 7.3142944279985698e-13
992 2.3857000090422197e-06 7.1096155808923695e-15 3.6000005789803906e-05 3.5999998842039216e-05 -2.7999998263058917e-05 0.00017936797095633862 -3.5873594191267709e-05 5.38103912869014e-05 1.8453482895631264e-11 -3.6906965791262528e-12 5.5360448686893833e-12
993 2.5427247268262852e-06 8.6078890668574611e-15 3.6000005135852532e-05 3.5999998972829512e-05 -1.9999998459244252e-05 0.00015971736042592061 -3.1943472085184186e-05 4.7915208127776438e-05 2.0138802854365155e-11 -4.0277605708730296e-12 6.0416408563095404e-12
994 1.4728647211065732e-06 1.6729663350803464e-15 3.6000013736148104e-05 3.5999997252770359e-05 -1.1999995879155588e-05 0.0004047225209083986 -8.0944504181679943e-05 0.00012141675627251994 8.2654416682762904e-12 -1.6530883336552555e-12 2.4796325004828819e-12
995 2.6582912608838709e-06 9.8357235337921906e-15 3.6000004721575908e-05 3.59999990556849e-05 -3.9999985835272351e-06 0.00014718638067057099 -2.9437276134114194e-05 4.4155914201171213e-05 2.1367926929212169e-11 -4.2735853858424334e-12 6.4103780787636521e-12
996 1.8428575322196899e-06 3.2769808875678256e-15 3.6000009298920901e-05 3.5999998140215851e-05 4.0000027896762386e-06 0.00028202092363348915 -5.6404184726697789e-05 8.4606277090046542e-05 1.2472301927894077e-11 -2.4944603855788162e-12 3.7416905783682269e-12
997 2.9423269055856041e-06 1.3337406616105307e-14 3.6000003890794561e-05 3.5999999221841003e-05 1.2000001167238353e-05 0.00012186660106697595 -2.4373320213395142e-05 3.6559980320092905e-05 2.4352904450521217e-11 -4.8705808901042462e-12 7.3058713351563617e-12
998 1.9541473510775281e-06 3.9072441278666559e-15 3.6000008366248511e-05 3.5999998326750246e-05 2.0000002509874515e-05 0.00025520546083017891 -5.1041092166035615e-05 7.6561638249053558e-05 1.3719203447862137e-11 -2.7438406895724297e-12 4.1157610343586423e-12
999 1.4903865244557403e-06 1.7333863322119141e-15 3.6000013464842239e-05 3.5999997307031594e-05 2.8000004039452644e-05 0.00039745887742874804 -7.9491775485749524e-05 0.00011923766322862451 8.465775112483493e-12 -1.6931550224966996e-12 2.5397325337450463e-12
1000 2.3236548878116141e-06 6.5692153940601999e-15 3.6000006082154556e-05 3.5999998783568999e-05 3.6000001824646338e-05 0.00018810094389565076 -3.7620188779130155e-05 5.6430283168695144e-05 1.7782386159501334e-11 -3.5564772319002662e-12 5.3347158478503993e-12
