Passive overdamped sphere storage only; density not used by integrator

1000 atoms
1 atom types

-6.3999999999999997e-05 6.3999999999999997e-05 xlo xhi
-6.3999999999999997e-05 6.3999999999999997e-05 ylo yhi
-6.3999999999999997e-05 6.3999999999999997e-05 zlo zhi

Atoms # sphere

1 1 2.740324769933979e-06 1 -3.6000000000000001e-05 -3.6000000000000001e-05 -3.6000000000000001e-05
2 1 2.6936311703938353e-06 1 -3.6000000000000001e-05 -3.6000000000000001e-05 -2.8000000000000003e-05
3 1 2.1286523712880871e-06 1 -3.6000000000000001e-05 -3.6000000000000001e-05 -2.0000000000000005e-05
4 1 2.5741216597356536e-06 1 -3.6000000000000001e-05 -3.6000000000000001e-05 -1.2000000000000004e-05
5 1 3.6555570657343003e-06 1 -3.6000000000000001e-05 -3.6000000000000001e-05 -4.0000000000000024e-06
6 1 1.6272198777928786e-06 1 -3.6000000000000001e-05 -3.6000000000000001e-05 3.9999999999999956e-06
7 1 1.8952167545334519e-06 1 -3.6000000000000001e-05 -3.6000000000000001e-05 1.1999999999999994e-05
8 1 1.3713092917874881e-06 1 -3.6000000000000001e-05 -3.6000000000000001e-05 1.9999999999999991e-05
9 1 2.9605956059313874e-06 1 -3.6000000000000001e-05 -3.6000000000000001e-05 2.7999999999999996e-05
10 1 2.0609365489400647e-06 1 -3.6000000000000001e-05 -3.6000000000000001e-05 3.5999999999999987e-05
11 1 1.9485010141989932e-06 1 -3.6000000000000001e-05 -2.8000000000000003e-05 -3.6000000000000001e-05
12 1 3.2044200129453844e-06 1 -3.6000000000000001e-05 -2.8000000000000003e-05 -2.8000000000000003e-05
13 1 2.9263892476989679e-06 1 -3.6000000000000001e-05 -2.8000000000000003e-05 -2.0000000000000005e-05
14 1 1.3388463114377205e-06 1 -3.6000000000000001e-05 -2.8000000000000003e-05 -1.2000000000000004e-05
15 1 1.7639020021844961e-06 1 -3.6000000000000001e-05 -2.8000000000000003e-05 -4.0000000000000024e-06
16 1 1.4817751935303172e-06 1 -3.6000000000000001e-05 -2.8000000000000003e-05 3.9999999999999956e-06
17 1 1.9286285161159636e-06 1 -3.6000000000000001e-05 -2.8000000000000003e-05 1.1999999999999994e-05
18 1 3.2161629946311912e-06 1 -3.6000000000000001e-05 -2.8000000000000003e-05 1.9999999999999991e-05
19 1 1.734144515451206e-06 1 -3.6000000000000001e-05 -2.8000000000000003e-05 2.7999999999999996e-05
20 1 2.1153033354028699e-06 1 -3.6000000000000001e-05 -2.8000000000000003e-05 3.5999999999999987e-05
21 1 2.204486583212623e-06 1 -3.6000000000000001e-05 -2.0000000000000005e-05 -3.6000000000000001e-05
22 1 2.3846240901226245e-06 1 -3.6000000000000001e-05 -2.0000000000000005e-05 -2.8000000000000003e-05
23 1 2.3299921255766743e-06 1 -3.6000000000000001e-05 -2.0000000000000005e-05 -2.0000000000000005e-05
24 1 3.0927352280443603e-06 1 -3.6000000000000001e-05 -2.0000000000000005e-05 -1.2000000000000004e-05
25 1 1.0593935157994196e-06 1 -3.6000000000000001e-05 -2.0000000000000005e-05 -4.0000000000000024e-06
26 1 2.1616500212331732e-06 1 -3.6000000000000001e-05 -2.0000000000000005e-05 3.9999999999999956e-06
27 1 1.4962493311626338e-06 1 -3.6000000000000001e-05 -2.0000000000000005e-05 1.1999999999999994e-05
28 1 1.4851871319025939e-06 1 -3.6000000000000001e-05 -2.0000000000000005e-05 1.9999999999999991e-05
29 1 1.9730642614923693e-06 1 -3.6000000000000001e-05 -2.0000000000000005e-05 2.7999999999999996e-05
30 1 1.8895456820229518e-06 1 -3.6000000000000001e-05 -2.0000000000000005e-05 3.5999999999999987e-05
31 1 1.9602902000934207e-06 1 -3.6000000000000001e-05 -1.2000000000000004e-05 -3.6000000000000001e-05
32 1 1.2934356200299047e-06 1 -3.6000000000000001e-05 -1.2000000000000004e-05 -2.8000000000000003e-05
33 1 1.3854470759790099e-06 1 -3.6000000000000001e-05 -1.2000000000000004e-05 -2.0000000000000005e-05
34 1 1.2767997965853246e-06 1 -3.6000000000000001e-05 -1.2000000000000004e-05 -1.2000000000000004e-05
35 1 1.1075272902060542e-06 1 -3.6000000000000001e-05 -1.2000000000000004e-05 -4.0000000000000024e-06
36 1 2.1365687172198431e-06 1 -3.6000000000000001e-05 -1.2000000000000004e-05 3.9999999999999956e-06
37 1 2.7126786356574288e-06 1 -3.6000000000000001e-05 -1.2000000000000004e-05 1.1999999999999994e-05
38 1 2.3563348156711546e-06 1 -3.6000000000000001e-05 -1.2000000000000004e-05 1.9999999999999991e-05
39 1 1.5776143132376809e-06 1 -3.6000000000000001e-05 -1.2000000000000004e-05 2.7999999999999996e-05
40 1 2.0872847254230712e-06 1 -3.6000000000000001e-05 -1.2000000000000004e-05 3.5999999999999987e-05
41 1 3.4793310812504849e-06 1 -3.6000000000000001e-05 -4.0000000000000024e-06 -3.6000000000000001e-05
42 1 3.0603780037653581e-06 1 -3.6000000000000001e-05 -4.0000000000000024e-06 -2.8000000000000003e-05
43 1 2.8384352093221757e-06 1 -3.6000000000000001e-05 -4.0000000000000024e-06 -2.0000000000000005e-05
44 1 2.0731794128214773e-06 1 -3.6000000000000001e-05 -4.0000000000000024e-06 -1.2000000000000004e-05
45 1 2.8809201486806668e-06 1 -3.6000000000000001e-05 -4.0000000000000024e-06 -4.0000000000000024e-06
46 1 1.4537636188372708e-06 1 -3.6000000000000001e-05 -4.0000000000000024e-06 3.9999999999999956e-06
47 1 1.2377624540039944e-06 1 -3.6000000000000001e-05 -4.0000000000000024e-06 1.1999999999999994e-05
48 1 1.6701368356563758e-06 1 -3.6000000000000001e-05 -4.0000000000000024e-06 1.9999999999999991e-05
49 1 1.7687025746947867e-06 1 -3.6000000000000001e-05 -4.0000000000000024e-06 2.7999999999999996e-05
50 1 1.685040519930315e-06 1 -3.6000000000000001e-05 -4.0000000000000024e-06 3.5999999999999987e-05
51 1 1.5839431403208904e-06 1 -3.6000000000000001e-05 3.9999999999999956e-06 -3.6000000000000001e-05
52 1 2.1688800638050217e-06 1 -3.6000000000000001e-05 3.9999999999999956e-06 -2.8000000000000003e-05
53 1 1.9851560214274476e-06 1 -3.6000000000000001e-05 3.9999999999999956e-06 -2.0000000000000005e-05
54 1 2.4740779046458627e-06 1 -3.6000000000000001e-05 3.9999999999999956e-06 -1.2000000000000004e-05
55 1 1.4174350002402288e-06 1 -3.6000000000000001e-05 3.9999999999999956e-06 -4.0000000000000024e-06
56 1 1.8669504303433175e-06 1 -3.6000000000000001e-05 3.9999999999999956e-06 3.9999999999999956e-06
57 1 1.5735077442562152e-06 1 -3.6000000000000001e-05 3.9999999999999956e-06 1.1999999999999994e-05
58 1 2.393333513590096e-06 1 -3.6000000000000001e-05 3.9999999999999956e-06 1.9999999999999991e-05
59 1 1.7025492116177103e-06 1 -3.6000000000000001e-05 3.9999999999999956e-06 2.7999999999999996e-05
60 1 3.3641532770981509e-06 1 -3.6000000000000001e-05 3.9999999999999956e-06 3.5999999999999987e-05
61 1 1.514759934685774e-06 1 -3.6000000000000001e-05 1.1999999999999994e-05 -3.6000000000000001e-05
62 1 2.5906476806392701e-06 1 -3.6000000000000001e-05 1.1999999999999994e-05 -2.8000000000000003e-05
63 1 1.9199491642498053e-06 1 -3.6000000000000001e-05 1.1999999999999994e-05 -2.0000000000000005e-05
64 1 2.1652609447710753e-06 1 -3.6000000000000001e-05 1.1999999999999994e-05 -1.2000000000000004e-05
65 1 2.1797029036078678e-06 1 -3.6000000000000001e-05 1.1999999999999994e-05 -4.0000000000000024e-06
66 1 2.6561938441593868e-06 1 -3.6000000000000001e-05 1.1999999999999994e-05 3.9999999999999956e-06
67 1 1.9566187389903785e-06 1 -3.6000000000000001e-05 1.1999999999999994e-05 1.1999999999999994e-05
68 1 3.3801285200403236e-06 1 -3.6000000000000001e-05 1.1999999999999994e-05 1.9999999999999991e-05
69 1 1.8162020938322693e-06 1 -3.6000000000000001e-05 1.1999999999999994e-05 2.7999999999999996e-05
70 1 1.2235107953363044e-06 1 -3.6000000000000001e-05 1.1999999999999994e-05 3.5999999999999987e-05
71 1 1.8382637901275547e-06 1 -3.6000000000000001e-05 1.9999999999999991e-05 -3.6000000000000001e-05
72 1 1.5995203314888816e-06 1 -3.6000000000000001e-05 1.9999999999999991e-05 -2.8000000000000003e-05
73 1 4.154773787385502e-06 1 -3.6000000000000001e-05 1.9999999999999991e-05 -2.0000000000000005e-05
74 1 1.6690638902636169e-06 1 -3.6000000000000001e-05 1.9999999999999991e-05 -1.2000000000000004e-05
75 1 1.7523704160827941e-06 1 -3.6000000000000001e-05 1.9999999999999991e-05 -4.0000000000000024e-06
76 1 1.5417723290443512e-06 1 -3.6000000000000001e-05 1.9999999999999991e-05 3.9999999999999956e-06
77 1 2.1538998123275273e-06 1 -3.6000000000000001e-05 1.9999999999999991e-05 1.1999999999999994e-05
78 1 1.2654444232196855e-06 1 -3.6000000000000001e-05 1.9999999999999991e-05 1.9999999999999991e-05
79 1 1.1714364288964666e-06 1 -3.6000000000000001e-05 1.9999999999999991e-05 2.7999999999999996e-05
80 1 1.1993418185008198e-06 1 -3.6000000000000001e-05 1.9999999999999991e-05 3.5999999999999987e-05
81 1 3.8106983799035905e-06 1 -3.6000000000000001e-05 2.7999999999999996e-05 -3.6000000000000001e-05
82 1 1.1635837369328247e-06 1 -3.6000000000000001e-05 2.7999999999999996e-05 -2.8000000000000003e-05
83 1 1.4331357716413832e-06 1 -3.6000000000000001e-05 2.7999999999999996e-05 -2.0000000000000005e-05
84 1 1.6275546289841579e-06 1 -3.6000000000000001e-05 2.7999999999999996e-05 -1.2000000000000004e-05
85 1 2.004923733209155e-06 1 -3.6000000000000001e-05 2.7999999999999996e-05 -4.0000000000000024e-06
86 1 2.9297368504565501e-06 1 -3.6000000000000001e-05 2.7999999999999996e-05 3.9999999999999956e-06
87 1 3.5335993878908385e-06 1 -3.6000000000000001e-05 2.7999999999999996e-05 1.1999999999999994e-05
88 1 3.6975732920717971e-06 1 -3.6000000000000001e-05 2.7999999999999996e-05 1.9999999999999991e-05
89 1 1.4381412731636183e-06 1 -3.6000000000000001e-05 2.7999999999999996e-05 2.7999999999999996e-05
90 1 2.2371442225330627e-06 1 -3.6000000000000001e-05 2.7999999999999996e-05 3.5999999999999987e-05
91 1 3.2103635451487513e-06 1 -3.6000000000000001e-05 3.5999999999999987e-05 -3.6000000000000001e-05
92 1 2.0054526271355036e-06 1 -3.6000000000000001e-05 3.5999999999999987e-05 -2.8000000000000003e-05
93 1 1.469429975263138e-06 1 -3.6000000000000001e-05 3.5999999999999987e-05 -2.0000000000000005e-05
94 1 1.7481383023563151e-06 1 -3.6000000000000001e-05 3.5999999999999987e-05 -1.2000000000000004e-05
95 1 1.8107438287095883e-06 1 -3.6000000000000001e-05 3.5999999999999987e-05 -4.0000000000000024e-06
96 1 1.4129401095027562e-06 1 -3.6000000000000001e-05 3.5999999999999987e-05 3.9999999999999956e-06
97 1 1.955978060098673e-06 1 -3.6000000000000001e-05 3.5999999999999987e-05 1.1999999999999994e-05
98 1 3.7247584776597988e-06 1 -3.6000000000000001e-05 3.5999999999999987e-05 1.9999999999999991e-05
99 1 2.3889145972856632e-06 1 -3.6000000000000001e-05 3.5999999999999987e-05 2.7999999999999996e-05
100 1 2.4136252211986749e-06 1 -3.6000000000000001e-05 3.5999999999999987e-05 3.5999999999999987e-05
101 1 1.3159967040931034e-06 1 -2.8000000000000003e-05 -3.6000000000000001e-05 -3.6000000000000001e-05
102 1 1.3193931992956092e-06 1 -2.8000000000000003e-05 -3.6000000000000001e-05 -2.8000000000000003e-05
103 1 2.5650593124940997e-06 1 -2.8000000000000003e-05 -3.6000000000000001e-05 -2.0000000000000005e-05
104 1 3.3906420895071185e-06 1 -2.8000000000000003e-05 -3.6000000000000001e-05 -1.2000000000000004e-05
105 1 1.5772217895955701e-06 1 -2.8000000000000003e-05 -3.6000000000000001e-05 -4.0000000000000024e-06
106 1 1.4138130897963794e-06 1 -2.8000000000000003e-05 -3.6000000000000001e-05 3.9999999999999956e-06
107 1 2.204029075168799e-06 1 -2.8000000000000003e-05 -3.6000000000000001e-05 1.1999999999999994e-05
108 1 1.9233795792581733e-06 1 -2.8000000000000003e-05 -3.6000000000000001e-05 1.9999999999999991e-05
109 1 1.8430682088224542e-06 1 -2.8000000000000003e-05 -3.6000000000000001e-05 2.7999999999999996e-05
110 1 1.2023211821958081e-06 1 -2.8000000000000003e-05 -3.6000000000000001e-05 3.5999999999999987e-05
111 1 1.7162331502856089e-06 1 -2.8000000000000003e-05 -2.8000000000000003e-05 -3.6000000000000001e-05
112 1 2.1945891637821899e-06 1 -2.8000000000000003e-05 -2.8000000000000003e-05 -2.8000000000000003e-05
113 1 2.4228828584671954e-06 1 -2.8000000000000003e-05 -2.8000000000000003e-05 -2.0000000000000005e-05
114 1 2.3749687788661113e-06 1 -2.8000000000000003e-05 -2.8000000000000003e-05 -1.2000000000000004e-05
115 1 1.0887099258381452e-06 1 -2.8000000000000003e-05 -2.8000000000000003e-05 -4.0000000000000024e-06
116 1 2.0874017227212916e-06 1 -2.8000000000000003e-05 -2.8000000000000003e-05 3.9999999999999956e-06
117 1 1.9120567089325231e-06 1 -2.8000000000000003e-05 -2.8000000000000003e-05 1.1999999999999994e-05
118 1 1.5252286585192844e-06 1 -2.8000000000000003e-05 -2.8000000000000003e-05 1.9999999999999991e-05
119 1 1.4529384855570733e-06 1 -2.8000000000000003e-05 -2.8000000000000003e-05 2.7999999999999996e-05
120 1 1.0525119903387191e-06 1 -2.8000000000000003e-05 -2.8000000000000003e-05 3.5999999999999987e-05
121 1 2.3097606252364434e-06 1 -2.8000000000000003e-05 -2.0000000000000005e-05 -3.6000000000000001e-05
122 1 2.5526809519951423e-06 1 -2.8000000000000003e-05 -2.0000000000000005e-05 -2.8000000000000003e-05
123 1 2.5757678657234578e-06 1 -2.8000000000000003e-05 -2.0000000000000005e-05 -2.0000000000000005e-05
124 1 1.6813877796003858e-06 1 -2.8000000000000003e-05 -2.0000000000000005e-05 -1.2000000000000004e-05
125 1 2.0685614103309844e-06 1 -2.8000000000000003e-05 -2.0000000000000005e-05 -4.0000000000000024e-06
126 1 1.6222051653863263e-06 1 -2.8000000000000003e-05 -2.0000000000000005e-05 3.9999999999999956e-06
127 1 1.634160708277734e-06 1 -2.8000000000000003e-05 -2.0000000000000005e-05 1.1999999999999994e-05
128 1 1.8815147649915504e-06 1 -2.8000000000000003e-05 -2.0000000000000005e-05 1.9999999999999991e-05
129 1 2.0364543541444709e-06 1 -2.8000000000000003e-05 -2.0000000000000005e-05 2.7999999999999996e-05
130 1 1.9552835728546476e-06 1 -2.8000000000000003e-05 -2.0000000000000005e-05 3.5999999999999987e-05
131 1 3.2118317735611842e-06 1 -2.8000000000000003e-05 -1.2000000000000004e-05 -3.6000000000000001e-05
132 1 1.9143262104358328e-06 1 -2.8000000000000003e-05 -1.2000000000000004e-05 -2.8000000000000003e-05
133 1 2.9705510733211562e-06 1 -2.8000000000000003e-05 -1.2000000000000004e-05 -2.0000000000000005e-05
134 1 2.5715401244889635e-06 1 -2.8000000000000003e-05 -1.2000000000000004e-05 -1.2000000000000004e-05
135 1 1.8586043360547151e-06 1 -2.8000000000000003e-05 -1.2000000000000004e-05 -4.0000000000000024e-06
136 1 1.8132789801538011e-06 1 -2.8000000000000003e-05 -1.2000000000000004e-05 3.9999999999999956e-06
137 1 2.3111203511826491e-06 1 -2.8000000000000003e-05 -1.2000000000000004e-05 1.1999999999999994e-05
138 1 1.4386265175388244e-06 1 -2.8000000000000003e-05 -1.2000000000000004e-05 1.9999999999999991e-05
139 1 2.2214103658916269e-06 1 -2.8000000000000003e-05 -1.2000000000000004e-05 2.7999999999999996e-05
140 1 3.7625777081410401e-06 1 -2.8000000000000003e-05 -1.2000000000000004e-05 3.5999999999999987e-05
141 1 1.8994363797215898e-06 1 -2.8000000000000003e-05 -4.0000000000000024e-06 -3.6000000000000001e-05
142 1 1.7486641885864786e-06 1 -2.8000000000000003e-05 -4.0000000000000024e-06 -2.8000000000000003e-05
143 1 2.5234660496083544e-06 1 -2.8000000000000003e-05 -4.0000000000000024e-06 -2.0000000000000005e-05
144 1 2.2029839406700497e-06 1 -2.8000000000000003e-05 -4.0000000000000024e-06 -1.2000000000000004e-05
145 1 1.4124551389100619e-06 1 -2.8000000000000003e-05 -4.0000000000000024e-06 -4.0000000000000024e-06
146 1 1.6864139912313447e-06 1 -2.8000000000000003e-05 -4.0000000000000024e-06 3.9999999999999956e-06
147 1 1.4333006784435929e-06 1 -2.8000000000000003e-05 -4.0000000000000024e-06 1.1999999999999994e-05
148 1 1.3379121155694881e-06 1 -2.8000000000000003e-05 -4.0000000000000024e-06 1.9999999999999991e-05
149 1 2.0506380940369715e-06 1 -2.8000000000000003e-05 -4.0000000000000024e-06 2.7999999999999996e-05
150 1 1.8382675072445641e-06 1 -2.8000000000000003e-05 -4.0000000000000024e-06 3.5999999999999987e-05
151 1 2.1838137253789679e-06 1 -2.8000000000000003e-05 3.9999999999999956e-06 -3.6000000000000001e-05
152 1 1.640202276767102e-06 1 -2.8000000000000003e-05 3.9999999999999956e-06 -2.8000000000000003e-05
153 1 1.7127020214775575e-06 1 -2.8000000000000003e-05 3.9999999999999956e-06 -2.0000000000000005e-05
154 1 1.8969189883900145e-06 1 -2.8000000000000003e-05 3.9999999999999956e-06 -1.2000000000000004e-05
155 1 1.6565136848078632e-06 1 -2.8000000000000003e-05 3.9999999999999956e-06 -4.0000000000000024e-06
156 1 1.7487119425426402e-06 1 -2.8000000000000003e-05 3.9999999999999956e-06 3.9999999999999956e-06
157 1 1.743225771632789e-06 1 -2.8000000000000003e-05 3.9999999999999956e-06 1.1999999999999994e-05
158 1 1.3765636231105943e-06 1 -2.8000000000000003e-05 3.9999999999999956e-06 1.9999999999999991e-05
159 1 1.7989042348274586e-06 1 -2.8000000000000003e-05 3.9999999999999956e-06 2.7999999999999996e-05
160 1 1.7520803662481545e-06 1 -2.8000000000000003e-05 3.9999999999999956e-06 3.5999999999999987e-05
161 1 3.8179342624977152e-06 1 -2.8000000000000003e-05 1.1999999999999994e-05 -3.6000000000000001e-05
162 1 1.4149096122721978e-06 1 -2.8000000000000003e-05 1.1999999999999994e-05 -2.8000000000000003e-05
163 1 3.0068986266145854e-06 1 -2.8000000000000003e-05 1.1999999999999994e-05 -2.0000000000000005e-05
164 1 1.872318013163135e-06 1 -2.8000000000000003e-05 1.1999999999999994e-05 -1.2000000000000004e-05
165 1 3.0658125061732252e-06 1 -2.8000000000000003e-05 1.1999999999999994e-05 -4.0000000000000024e-06
166 1 2.6231782045798922e-06 1 -2.8000000000000003e-05 1.1999999999999994e-05 3.9999999999999956e-06
167 1 2.7704828240678104e-06 1 -2.8000000000000003e-05 1.1999999999999994e-05 1.1999999999999994e-05
168 1 1.7092477812371371e-06 1 -2.8000000000000003e-05 1.1999999999999994e-05 1.9999999999999991e-05
169 1 1.7016303375087805e-06 1 -2.8000000000000003e-05 1.1999999999999994e-05 2.7999999999999996e-05
170 1 2.077180048374831e-06 1 -2.8000000000000003e-05 1.1999999999999994e-05 3.5999999999999987e-05
171 1 1.2958854327444342e-06 1 -2.8000000000000003e-05 1.9999999999999991e-05 -3.6000000000000001e-05
172 1 2.3973065729465763e-06 1 -2.8000000000000003e-05 1.9999999999999991e-05 -2.8000000000000003e-05
173 1 1.1152101437584407e-06 1 -2.8000000000000003e-05 1.9999999999999991e-05 -2.0000000000000005e-05
174 1 2.6306772396196764e-06 1 -2.8000000000000003e-05 1.9999999999999991e-05 -1.2000000000000004e-05
175 1 1.7778196899582142e-06 1 -2.8000000000000003e-05 1.9999999999999991e-05 -4.0000000000000024e-06
176 1 2.0401001696933361e-06 1 -2.8000000000000003e-05 1.9999999999999991e-05 3.9999999999999956e-06
177 1 2.4455446808966521e-06 1 -2.8000000000000003e-05 1.9999999999999991e-05 1.1999999999999994e-05
178 1 1.3018800080734398e-06 1 -2.8000000000000003e-05 1.9999999999999991e-05 1.9999999999999991e-05
179 1 1.3442985355739242e-06 1 -2.8000000000000003e-05 1.9999999999999991e-05 2.7999999999999996e-05
180 1 1.8853466155510099e-06 1 -2.8000000000000003e-05 1.9999999999999991e-05 3.5999999999999987e-05
181 1 2.6574566560355968e-06 1 -2.8000000000000003e-05 2.7999999999999996e-05 -3.6000000000000001e-05
182 1 1.669483635177563e-06 1 -2.8000000000000003e-05 2.7999999999999996e-05 -2.8000000000000003e-05
183 1 2.4452184990705763e-06 1 -2.8000000000000003e-05 2.7999999999999996e-05 -2.0000000000000005e-05
184 1 2.079669157699844e-06 1 -2.8000000000000003e-05 2.7999999999999996e-05 -1.2000000000000004e-05
185 1 1.4688861132796983e-06 1 -2.8000000000000003e-05 2.7999999999999996e-05 -4.0000000000000024e-06
186 1 2.3052752099390829e-06 1 -2.8000000000000003e-05 2.7999999999999996e-05 3.9999999999999956e-06
187 1 2.8392588483928275e-06 1 -2.8000000000000003e-05 2.7999999999999996e-05 1.1999999999999994e-05
188 1 2.2395370551279453e-06 1 -2.8000000000000003e-05 2.7999999999999996e-05 1.9999999999999991e-05
189 1 1.391281746385767e-06 1 -2.8000000000000003e-05 2.7999999999999996e-05 2.7999999999999996e-05
190 1 1.2992918077374335e-06 1 -2.8000000000000003e-05 2.7999999999999996e-05 3.5999999999999987e-05
191 1 1.2989468443851733e-06 1 -2.8000000000000003e-05 3.5999999999999987e-05 -3.6000000000000001e-05
192 1 2.7565088590965447e-06 1 -2.8000000000000003e-05 3.5999999999999987e-05 -2.8000000000000003e-05
193 1 1.7219518109993063e-06 1 -2.8000000000000003e-05 3.5999999999999987e-05 -2.0000000000000005e-05
194 1 9.6670360379888213e-07 1 -2.8000000000000003e-05 3.5999999999999987e-05 -1.2000000000000004e-05
195 1 3.3028831175059516e-06 1 -2.8000000000000003e-05 3.5999999999999987e-05 -4.0000000000000024e-06
196 1 2.035104362484232e-06 1 -2.8000000000000003e-05 3.5999999999999987e-05 3.9999999999999956e-06
197 1 3.4943863203678019e-06 1 -2.8000000000000003e-05 3.5999999999999987e-05 1.1999999999999994e-05
198 1 1.2376129034182286e-06 1 -2.8000000000000003e-05 3.5999999999999987e-05 1.9999999999999991e-05
199 1 1.5288678868355324e-06 1 -2.8000000000000003e-05 3.5999999999999987e-05 2.7999999999999996e-05
200 1 1.6342923613713444e-06 1 -2.8000000000000003e-05 3.5999999999999987e-05 3.5999999999999987e-05
201 1 2.0588571417977604e-06 1 -2.0000000000000005e-05 -3.6000000000000001e-05 -3.6000000000000001e-05
202 1 1.1434209008759385e-06 1 -2.0000000000000005e-05 -3.6000000000000001e-05 -2.8000000000000003e-05
203 1 2.1579252035779676e-06 1 -2.0000000000000005e-05 -3.6000000000000001e-05 -2.0000000000000005e-05
204 1 1.7632635118827976e-06 1 -2.0000000000000005e-05 -3.6000000000000001e-05 -1.2000000000000004e-05
205 1 1.787883848535563e-06 1 -2.0000000000000005e-05 -3.6000000000000001e-05 -4.0000000000000024e-06
206 1 1.9348799141976883e-06 1 -2.0000000000000005e-05 -3.6000000000000001e-05 3.9999999999999956e-06
207 1 2.9969855707162403e-06 1 -2.0000000000000005e-05 -3.6000000000000001e-05 1.1999999999999994e-05
208 1 1.3616395802736874e-06 1 -2.0000000000000005e-05 -3.6000000000000001e-05 1.9999999999999991e-05
209 1 1.3077684007797787e-06 1 -2.0000000000000005e-05 -3.6000000000000001e-05 2.7999999999999996e-05
210 1 2.9165610015166685e-06 1 -2.0000000000000005e-05 -3.6000000000000001e-05 3.5999999999999987e-05
211 1 1.8503675300870634e-06 1 -2.0000000000000005e-05 -2.8000000000000003e-05 -3.6000000000000001e-05
212 1 2.1613120462093317e-06 1 -2.0000000000000005e-05 -2.8000000000000003e-05 -2.8000000000000003e-05
213 1 1.8716127835794765e-06 1 -2.0000000000000005e-05 -2.8000000000000003e-05 -2.0000000000000005e-05
214 1 1.4179388207771894e-06 1 -2.0000000000000005e-05 -2.8000000000000003e-05 -1.2000000000000004e-05
215 1 2.2746957658072362e-06 1 -2.0000000000000005e-05 -2.8000000000000003e-05 -4.0000000000000024e-06
216 1 1.8710311952253797e-06 1 -2.0000000000000005e-05 -2.8000000000000003e-05 3.9999999999999956e-06
217 1 2.5621230069473621e-06 1 -2.0000000000000005e-05 -2.8000000000000003e-05 1.1999999999999994e-05
218 1 1.4517852404634872e-06 1 -2.0000000000000005e-05 -2.8000000000000003e-05 1.9999999999999991e-05
219 1 1.8875691419490586e-06 1 -2.0000000000000005e-05 -2.8000000000000003e-05 2.7999999999999996e-05
220 1 2.8813302885582384e-06 1 -2.0000000000000005e-05 -2.8000000000000003e-05 3.5999999999999987e-05
221 1 2.8181022665001782e-06 1 -2.0000000000000005e-05 -2.0000000000000005e-05 -3.6000000000000001e-05
222 1 2.1708349720687844e-06 1 -2.0000000000000005e-05 -2.0000000000000005e-05 -2.8000000000000003e-05
223 1 1.5046919267322715e-06 1 -2.0000000000000005e-05 -2.0000000000000005e-05 -2.0000000000000005e-05
224 1 1.799297816995625e-06 1 -2.0000000000000005e-05 -2.0000000000000005e-05 -1.2000000000000004e-05
225 1 1.294832102416562e-06 1 -2.0000000000000005e-05 -2.0000000000000005e-05 -4.0000000000000024e-06
226 1 2.0047316879317904e-06 1 -2.0000000000000005e-05 -2.0000000000000005e-05 3.9999999999999956e-06
227 1 1.8836865395907268e-06 1 -2.0000000000000005e-05 -2.0000000000000005e-05 1.1999999999999994e-05
228 1 1.6612106025135393e-06 1 -2.0000000000000005e-05 -2.0000000000000005e-05 1.9999999999999991e-05
229 1 1.5960022455332918e-06 1 -2.0000000000000005e-05 -2.0000000000000005e-05 2.7999999999999996e-05
230 1 2.9141144660977429e-06 1 -2.0000000000000005e-05 -2.0000000000000005e-05 3.5999999999999987e-05
231 1 2.6545685895727707e-06 1 -2.0000000000000005e-05 -1.2000000000000004e-05 -3.6000000000000001e-05
232 1 3.0824669368229129e-06 1 -2.0000000000000005e-05 -1.2000000000000004e-05 -2.8000000000000003e-05
233 1 1.1206031116352847e-06 1 -2.0000000000000005e-05 -1.2000000000000004e-05 -2.0000000000000005e-05
234 1 1.8149254746973703e-06 1 -2.0000000000000005e-05 -1.2000000000000004e-05 -1.2000000000000004e-05
235 1 3.2631057884092516e-06 1 -2.0000000000000005e-05 -1.2000000000000004e-05 -4.0000000000000024e-06
236 1 2.2820074915260092e-06 1 -2.0000000000000005e-05 -1.2000000000000004e-05 3.9999999999999956e-06
237 1 2.3657185072364187e-06 1 -2.0000000000000005e-05 -1.2000000000000004e-05 1.1999999999999994e-05
238 1 2.5777694117075349e-06 1 -2.0000000000000005e-05 -1.2000000000000004e-05 1.9999999999999991e-05
239 1 2.7833725651787784e-06 1 -2.0000000000000005e-05 -1.2000000000000004e-05 2.7999999999999996e-05
240 1 1.1573786221283205e-06 1 -2.0000000000000005e-05 -1.2000000000000004e-05 3.5999999999999987e-05
241 1 3.3886456555228973e-06 1 -2.0000000000000005e-05 -4.0000000000000024e-06 -3.6000000000000001e-05
242 1 1.1996863596673608e-06 1 -2.0000000000000005e-05 -4.0000000000000024e-06 -2.8000000000000003e-05
243 1 1.6493901777067851e-06 1 -2.0000000000000005e-05 -4.0000000000000024e-06 -2.0000000000000005e-05
244 1 1.6938876872476683e-06 1 -2.0000000000000005e-05 -4.0000000000000024e-06 -1.2000000000000004e-05
245 1 1.7137295417391552e-06 1 -2.0000000000000005e-05 -4.0000000000000024e-06 -4.0000000000000024e-06
246 1 1.0173211140823616e-06 1 -2.0000000000000005e-05 -4.0000000000000024e-06 3.9999999999999956e-06
247 1 2.3695856379478519e-06 1 -2.0000000000000005e-05 -4.0000000000000024e-06 1.1999999999999994e-05
248 1 1.7910308511312091e-06 1 -2.0000000000000005e-05 -4.0000000000000024e-06 1.9999999999999991e-05
249 1 1.3493151760776479e-06 1 -2.0000000000000005e-05 -4.0000000000000024e-06 2.7999999999999996e-05
250 1 1.1980454322359464e-06 1 -2.0000000000000005e-05 -4.0000000000000024e-06 3.5999999999999987e-05
251 1 2.0831964993476294e-06 1 -2.0000000000000005e-05 3.9999999999999956e-06 -3.6000000000000001e-05
252 1 2.0059972766341272e-06 1 -2.0000000000000005e-05 3.9999999999999956e-06 -2.8000000000000003e-05
253 1 2.7459291318679777e-06 1 -2.0000000000000005e-05 3.9999999999999956e-06 -2.0000000000000005e-05
254 1 1.8501686512476493e-06 1 -2.0000000000000005e-05 3.9999999999999956e-06 -1.2000000000000004e-05
255 1 1.6030515699201682e-06 1 -2.0000000000000005e-05 3.9999999999999956e-06 -4.0000000000000024e-06
256 1 3.5358041562807325e-06 1 -2.0000000000000005e-05 3.9999999999999956e-06 3.9999999999999956e-06
257 1 1.8762751639802248e-06 1 -2.0000000000000005e-05 3.9999999999999956e-06 1.1999999999999994e-05
258 1 1.9902142501958622e-06 1 -2.0000000000000005e-05 3.9999999999999956e-06 1.9999999999999991e-05
259 1 1.3012405706259073e-06 1 -2.0000000000000005e-05 3.9999999999999956e-06 2.7999999999999996e-05
260 1 2.1100091094391726e-06 1 -2.0000000000000005e-05 3.9999999999999956e-06 3.5999999999999987e-05
261 1 1.6445242960643664e-06 1 -2.0000000000000005e-05 1.1999999999999994e-05 -3.6000000000000001e-05
262 1 1.8541447484318065e-06 1 -2.0000000000000005e-05 1.1999999999999994e-05 -2.8000000000000003e-05
263 1 1.8831336266970116e-06 1 -2.0000000000000005e-05 1.1999999999999994e-05 -2.0000000000000005e-05
264 1 1.3307889762315306e-06 1 -2.0000000000000005e-05 1.1999999999999994e-05 -1.2000000000000004e-05
265 1 1.7763574291903578e-06 1 -2.0000000000000005e-05 1.1999999999999994e-05 -4.0000000000000024e-06
266 1 1.6813447735361549e-06 1 -2.0000000000000005e-05 1.1999999999999994e-05 3.9999999999999956e-06
267 1 1.5297214009030282e-06 1 -2.0000000000000005e-05 1.1999999999999994e-05 1.1999999999999994e-05
268 1 1.2663127394163751e-06 1 -2.0000000000000005e-05 1.1999999999999994e-05 1.9999999999999991e-05
269 1 1.9619647348780922e-06 1 -2.0000000000000005e-05 1.1999999999999994e-05 2.7999999999999996e-05
270 1 2.8797537436875167e-06 1 -2.0000000000000005e-05 1.1999999999999994e-05 3.5999999999999987e-05
271 1 1.2294754943297532e-06 1 -2.0000000000000005e-05 1.9999999999999991e-05 -3.6000000000000001e-05
272 1 1.8938321982737696e-06 1 -2.0000000000000005e-05 1.9999999999999991e-05 -2.8000000000000003e-05
273 1 2.193271213636377e-06 1 -2.0000000000000005e-05 1.9999999999999991e-05 -2.0000000000000005e-05
274 1 1.2415512179488843e-06 1 -2.0000000000000005e-05 1.9999999999999991e-05 -1.2000000000000004e-05
275 1 2.6387877750875648e-06 1 -2.0000000000000005e-05 1.9999999999999991e-05 -4.0000000000000024e-06
276 1 1.937651727064834e-06 1 -2.0000000000000005e-05 1.9999999999999991e-05 3.9999999999999956e-06
277 1 1.1800827684226149e-06 1 -2.0000000000000005e-05 1.9999999999999991e-05 1.1999999999999994e-05
278 1 1.3121142577175316e-06 1 -2.0000000000000005e-05 1.9999999999999991e-05 1.9999999999999991e-05
279 1 2.128761544127188e-06 1 -2.0000000000000005e-05 1.9999999999999991e-05 2.7999999999999996e-05
280 1 2.1262459257609025e-06 1 -2.0000000000000005e-05 1.9999999999999991e-05 3.5999999999999987e-05
281 1 1.327940911524226e-06 1 -2.0000000000000005e-05 2.7999999999999996e-05 -3.6000000000000001e-05
282 1 1.3982591428277136e-06 1 -2.0000000000000005e-05 2.7999999999999996e-05 -2.8000000000000003e-05
283 1 2.0105237349071168e-06 1 -2.0000000000000005e-05 2.7999999999999996e-05 -2.0000000000000005e-05
284 1 1.2132571833355365e-06 1 -2.0000000000000005e-05 2.7999999999999996e-05 -1.2000000000000004e-05
285 1 1.1441690067146605e-06 1 -2.0000000000000005e-05 2.7999999999999996e-05 -4.0000000000000024e-06
286 1 1.5644681217118712e-06 1 -2.0000000000000005e-05 2.7999999999999996e-05 3.9999999999999956e-06
287 1 1.2899131128515166e-06 1 -2.0000000000000005e-05 2.7999999999999996e-05 1.1999999999999994e-05
288 1 3.0644029335690302e-06 1 -2.0000000000000005e-05 2.7999999999999996e-05 1.9999999999999991e-05
289 1 2.5555527152758319e-06 1 -2.0000000000000005e-05 2.7999999999999996e-05 2.7999999999999996e-05
290 1 1.4054222800843567e-06 1 -2.0000000000000005e-05 2.7999999999999996e-05 3.5999999999999987e-05
291 1 3.0521896904783096e-06 1 -2.0000000000000005e-05 3.5999999999999987e-05 -3.6000000000000001e-05
292 1 1.3840115651705557e-06 1 -2.0000000000000005e-05 3.5999999999999987e-05 -2.8000000000000003e-05
293 1 2.0952201983788915e-06 1 -2.0000000000000005e-05 3.5999999999999987e-05 -2.0000000000000005e-05
294 1 3.8166029458383348e-06 1 -2.0000000000000005e-05 3.5999999999999987e-05 -1.2000000000000004e-05
295 1 1.2391420881123025e-06 1 -2.0000000000000005e-05 3.5999999999999987e-05 -4.0000000000000024e-06
296 1 2.4495806594567452e-06 1 -2.0000000000000005e-05 3.5999999999999987e-05 3.9999999999999956e-06
297 1 1.9284974716405827e-06 1 -2.0000000000000005e-05 3.5999999999999987e-05 1.1999999999999994e-05
298 1 2.4824378669600704e-06 1 -2.0000000000000005e-05 3.5999999999999987e-05 1.9999999999999991e-05
299 1 1.5901020232078727e-06 1 -2.0000000000000005e-05 3.5999999999999987e-05 2.7999999999999996e-05
300 1 3.1457930952720848e-06 1 -2.0000000000000005e-05 3.5999999999999987e-05 3.5999999999999987e-05
301 1 2.6497532755289814e-06 1 -1.2000000000000004e-05 -3.6000000000000001e-05 -3.6000000000000001e-05
302 1 1.3851284423813066e-06 1 -1.2000000000000004e-05 -3.6000000000000001e-05 -2.8000000000000003e-05
303 1 9.4967412086524598e-07 1 -1.2000000000000004e-05 -3.6000000000000001e-05 -2.0000000000000005e-05
304 1 1.2831306812726424e-06 1 -1.2000000000000004e-05 -3.6000000000000001e-05 -1.2000000000000004e-05
305 1 1.3208428294390447e-06 1 -1.2000000000000004e-05 -3.6000000000000001e-05 -4.0000000000000024e-06
306 1 3.0448600330620355e-06 1 -1.2000000000000004e-05 -3.6000000000000001e-05 3.9999999999999956e-06
307 1 1.3926718852432492e-06 1 -1.2000000000000004e-05 -3.6000000000000001e-05 1.1999999999999994e-05
308 1 1.7828269814939539e-06 1 -1.2000000000000004e-05 -3.6000000000000001e-05 1.9999999999999991e-05
309 1 1.4675292511534648e-06 1 -1.2000000000000004e-05 -3.6000000000000001e-05 2.7999999999999996e-05
310 1 3.0589642263014149e-06 1 -1.2000000000000004e-05 -3.6000000000000001e-05 3.5999999999999987e-05
311 1 3.8502956091320226e-06 1 -1.2000000000000004e-05 -2.8000000000000003e-05 -3.6000000000000001e-05
312 1 3.757843994465852e-06 1 -1.2000000000000004e-05 -2.8000000000000003e-05 -2.8000000000000003e-05
313 1 1.7278652185650871e-06 1 -1.2000000000000004e-05 -2.8000000000000003e-05 -2.0000000000000005e-05
314 1 2.0330549080716501e-06 1 -1.2000000000000004e-05 -2.8000000000000003e-05 -1.2000000000000004e-05
315 1 2.2617908410337774e-06 1 -1.2000000000000004e-05 -2.8000000000000003e-05 -4.0000000000000024e-06
316 1 2.4541960448766501e-06 1 -1.2000000000000004e-05 -2.8000000000000003e-05 3.9999999999999956e-06
317 1 1.8744605442536642e-06 1 -1.2000000000000004e-05 -2.8000000000000003e-05 1.1999999999999994e-05
318 1 1.6771181457242361e-06 1 -1.2000000000000004e-05 -2.8000000000000003e-05 1.9999999999999991e-05
319 1 1.6670478285527825e-06 1 -1.2000000000000004e-05 -2.8000000000000003e-05 2.7999999999999996e-05
320 1 2.0381524381599294e-06 1 -1.2000000000000004e-05 -2.8000000000000003e-05 3.5999999999999987e-05
321 1 2.608823769024921e-06 1 -1.2000000000000004e-05 -2.0000000000000005e-05 -3.6000000000000001e-05
322 1 1.8878118103787065e-06 1 -1.2000000000000004e-05 -2.0000000000000005e-05 -2.8000000000000003e-05
323 1 2.2836711381180188e-06 1 -1.2000000000000004e-05 -2.0000000000000005e-05 -2.0000000000000005e-05
324 1 3.7599065803059529e-06 1 -1.2000000000000004e-05 -2.0000000000000005e-05 -1.2000000000000004e-05
325 1 1.3422930071035254e-06 1 -1.2000000000000004e-05 -2.0000000000000005e-05 -4.0000000000000024e-06
326 1 2.4184201591830578e-06 1 -1.2000000000000004e-05 -2.0000000000000005e-05 3.9999999999999956e-06
327 1 1.5026390437910228e-06 1 -1.2000000000000004e-05 -2.0000000000000005e-05 1.1999999999999994e-05
328 1 3.126086038751627e-06 1 -1.2000000000000004e-05 -2.0000000000000005e-05 1.9999999999999991e-05
329 1 1.2611366921751382e-06 1 -1.2000000000000004e-05 -2.0000000000000005e-05 2.7999999999999996e-05
330 1 1.7552388866627224e-06 1 -1.2000000000000004e-05 -2.0000000000000005e-05 3.5999999999999987e-05
331 1 3.0765275790830311e-06 1 -1.2000000000000004e-05 -1.2000000000000004e-05 -3.6000000000000001e-05
332 1 1.4712451427200956e-06 1 -1.2000000000000004e-05 -1.2000000000000004e-05 -2.8000000000000003e-05
333 1 3.0352244348663657e-06 1 -1.2000000000000004e-05 -1.2000000000000004e-05 -2.0000000000000005e-05
334 1 3.0647075690747675e-06 1 -1.2000000000000004e-05 -1.2000000000000004e-05 -1.2000000000000004e-05
335 1 1.2485307266908842e-06 1 -1.2000000000000004e-05 -1.2000000000000004e-05 -4.0000000000000024e-06
336 1 2.7320416179989961e-06 1 -1.2000000000000004e-05 -1.2000000000000004e-05 3.9999999999999956e-06
337 1 3.3445393267927848e-06 1 -1.2000000000000004e-05 -1.2000000000000004e-05 1.1999999999999994e-05
338 1 1.2499365590099163e-06 1 -1.2000000000000004e-05 -1.2000000000000004e-05 1.9999999999999991e-05
339 1 1.3086985597234358e-06 1 -1.2000000000000004e-05 -1.2000000000000004e-05 2.7999999999999996e-05
340 1 2.2391074216410735e-06 1 -1.2000000000000004e-05 -1.2000000000000004e-05 3.5999999999999987e-05
341 1 1.9038711703097162e-06 1 -1.2000000000000004e-05 -4.0000000000000024e-06 -3.6000000000000001e-05
342 1 1.337366338040546e-06 1 -1.2000000000000004e-05 -4.0000000000000024e-06 -2.8000000000000003e-05
343 1 1.1636377438561614e-06 1 -1.2000000000000004e-05 -4.0000000000000024e-06 -2.0000000000000005e-05
344 1 2.0115494443642224e-06 1 -1.2000000000000004e-05 -4.0000000000000024e-06 -1.2000000000000004e-05
345 1 1.9864053292006667e-06 1 -1.2000000000000004e-05 -4.0000000000000024e-06 -4.0000000000000024e-06
346 1 1.572022778946572e-06 1 -1.2000000000000004e-05 -4.0000000000000024e-06 3.9999999999999956e-06
347 1 2.0331417058383602e-06 1 -1.2000000000000004e-05 -4.0000000000000024e-06 1.1999999999999994e-05
348 1 1.2884726929665913e-06 1 -1.2000000000000004e-05 -4.0000000000000024e-06 1.9999999999999991e-05
349 1 2.2585377119793782e-06 1 -1.2000000000000004e-05 -4.0000000000000024e-06 2.7999999999999996e-05
350 1 3.3526648612611369e-06 1 -1.2000000000000004e-05 -4.0000000000000024e-06 3.5999999999999987e-05
351 1 1.7323418776189319e-06 1 -1.2000000000000004e-05 3.9999999999999956e-06 -3.6000000000000001e-05
352 1 1.8032511167475448e-06 1 -1.2000000000000004e-05 3.9999999999999956e-06 -2.8000000000000003e-05
353 1 2.2422685511194681e-06 1 -1.2000000000000004e-05 3.9999999999999956e-06 -2.0000000000000005e-05
354 1 2.1196874038637711e-06 1 -1.2000000000000004e-05 3.9999999999999956e-06 -1.2000000000000004e-05
355 1 1.5343656564286631e-06 1 -1.2000000000000004e-05 3.9999999999999956e-06 -4.0000000000000024e-06
356 1 3.1460924901734282e-06 1 -1.2000000000000004e-05 3.9999999999999956e-06 3.9999999999999956e-06
357 1 1.7682683427694632e-06 1 -1.2000000000000004e-05 3.9999999999999956e-06 1.1999999999999994e-05
358 1 1.4947034032736228e-06 1 -1.2000000000000004e-05 3.9999999999999956e-06 1.9999999999999991e-05
359 1 3.0323684826268986e-06 1 -1.2000000000000004e-05 3.9999999999999956e-06 2.7999999999999996e-05
360 1 1.9347549661301034e-06 1 -1.2000000000000004e-05 3.9999999999999956e-06 3.5999999999999987e-05
361 1 1.3664047545907689e-06 1 -1.2000000000000004e-05 1.1999999999999994e-05 -3.6000000000000001e-05
362 1 2.1579621764266661e-06 1 -1.2000000000000004e-05 1.1999999999999994e-05 -2.8000000000000003e-05
363 1 1.211508017342859e-06 1 -1.2000000000000004e-05 1.1999999999999994e-05 -2.0000000000000005e-05
364 1 3.7745278023361851e-06 1 -1.2000000000000004e-05 1.1999999999999994e-05 -1.2000000000000004e-05
365 1 2.2015037825870857e-06 1 -1.2000000000000004e-05 1.1999999999999994e-05 -4.0000000000000024e-06
366 1 1.8160337042026735e-06 1 -1.2000000000000004e-05 1.1999999999999994e-05 3.9999999999999956e-06
367 1 1.6178229474732179e-06 1 -1.2000000000000004e-05 1.1999999999999994e-05 1.1999999999999994e-05
368 1 3.5435913168583901e-06 1 -1.2000000000000004e-05 1.1999999999999994e-05 1.9999999999999991e-05
369 1 1.4295949630034687e-06 1 -1.2000000000000004e-05 1.1999999999999994e-05 2.7999999999999996e-05
370 1 3.0569189592735783e-06 1 -1.2000000000000004e-05 1.1999999999999994e-05 3.5999999999999987e-05
371 1 2.139687408934795e-06 1 -1.2000000000000004e-05 1.9999999999999991e-05 -3.6000000000000001e-05
372 1 2.0224557662274177e-06 1 -1.2000000000000004e-05 1.9999999999999991e-05 -2.8000000000000003e-05
373 1 1.7912237951376481e-06 1 -1.2000000000000004e-05 1.9999999999999991e-05 -2.0000000000000005e-05
374 1 3.1833922701564364e-06 1 -1.2000000000000004e-05 1.9999999999999991e-05 -1.2000000000000004e-05
375 1 2.2945803956059078e-06 1 -1.2000000000000004e-05 1.9999999999999991e-05 -4.0000000000000024e-06
376 1 1.9298019897030696e-06 1 -1.2000000000000004e-05 1.9999999999999991e-05 3.9999999999999956e-06
377 1 2.1845622799284666e-06 1 -1.2000000000000004e-05 1.9999999999999991e-05 1.1999999999999994e-05
378 1 1.7846876214174298e-06 1 -1.2000000000000004e-05 1.9999999999999991e-05 1.9999999999999991e-05
379 1 2.0278706198122927e-06 1 -1.2000000000000004e-05 1.9999999999999991e-05 2.7999999999999996e-05
380 1 2.8216162983171044e-06 1 -1.2000000000000004e-05 1.9999999999999991e-05 3.5999999999999987e-05
381 1 1.861023797461399e-06 1 -1.2000000000000004e-05 2.7999999999999996e-05 -3.6000000000000001e-05
382 1 1.6188166973562804e-06 1 -1.2000000000000004e-05 2.7999999999999996e-05 -2.8000000000000003e-05
383 1 1.7586342289206973e-06 1 -1.2000000000000004e-05 2.7999999999999996e-05 -2.0000000000000005e-05
384 1 2.1511834511995987e-06 1 -1.2000000000000004e-05 2.7999999999999996e-05 -1.2000000000000004e-05
385 1 1.0971528026904216e-06 1 -1.2000000000000004e-05 2.7999999999999996e-05 -4.0000000000000024e-06
386 1 2.3029908566060102e-06 1 -1.2000000000000004e-05 2.7999999999999996e-05 3.9999999999999956e-06
387 1 1.7774530193615053e-06 1 -1.2000000000000004e-05 2.7999999999999996e-05 1.1999999999999994e-05
388 1 2.253686817591625e-06 1 -1.2000000000000004e-05 2.7999999999999996e-05 1.9999999999999991e-05
389 1 1.0290285199744962e-06 1 -1.2000000000000004e-05 2.7999999999999996e-05 2.7999999999999996e-05
390 1 2.6055116126234231e-06 1 -1.2000000000000004e-05 2.7999999999999996e-05 3.5999999999999987e-05
391 1 1.670989415032867e-06 1 -1.2000000000000004e-05 3.5999999999999987e-05 -3.6000000000000001e-05
392 1 2.7900882382596568e-06 1 -1.2000000000000004e-05 3.5999999999999987e-05 -2.8000000000000003e-05
393 1 2.1391493302021169e-06 1 -1.2000000000000004e-05 3.5999999999999987e-05 -2.0000000000000005e-05
394 1 3.4566140892822647e-06 1 -1.2000000000000004e-05 3.5999999999999987e-05 -1.2000000000000004e-05
395 1 3.6924892979749348e-06 1 -1.2000000000000004e-05 3.5999999999999987e-05 -4.0000000000000024e-06
396 1 1.3964168873970311e-06 1 -1.2000000000000004e-05 3.5999999999999987e-05 3.9999999999999956e-06
397 1 2.6085707422979119e-06 1 -1.2000000000000004e-05 3.5999999999999987e-05 1.1999999999999994e-05
398 1 2.8299661767423474e-06 1 -1.2000000000000004e-05 3.5999999999999987e-05 1.9999999999999991e-05
399 1 2.3947210017712472e-06 1 -1.2000000000000004e-05 3.5999999999999987e-05 2.7999999999999996e-05
400 1 2.0234969649813887e-06 1 -1.2000000000000004e-05 3.5999999999999987e-05 3.5999999999999987e-05
401 1 1.5614055257142637e-06 1 -4.0000000000000024e-06 -3.6000000000000001e-05 -3.6000000000000001e-05
402 1 9.8716356562093542e-07 1 -4.0000000000000024e-06 -3.6000000000000001e-05 -2.8000000000000003e-05
403 1 2.3550852084981827e-06 1 -4.0000000000000024e-06 -3.6000000000000001e-05 -2.0000000000000005e-05
404 1 1.4392536573456221e-06 1 -4.0000000000000024e-06 -3.6000000000000001e-05 -1.2000000000000004e-05
405 1 1.6948612737330033e-06 1 -4.0000000000000024e-06 -3.6000000000000001e-05 -4.0000000000000024e-06
406 1 1.9270444997090154e-06 1 -4.0000000000000024e-06 -3.6000000000000001e-05 3.9999999999999956e-06
407 1 1.2688428468405635e-06 1 -4.0000000000000024e-06 -3.6000000000000001e-05 1.1999999999999994e-05
408 1 2.7370142971968804e-06 1 -4.0000000000000024e-06 -3.6000000000000001e-05 1.9999999999999991e-05
409 1 1.7184815807945025e-06 1 -4.0000000000000024e-06 -3.6000000000000001e-05 2.7999999999999996e-05
410 1 1.2646290645971704e-06 1 -4.0000000000000024e-06 -3.6000000000000001e-05 3.5999999999999987e-05
411 1 3.4155002274426453e-06 1 -4.0000000000000024e-06 -2.8000000000000003e-05 -3.6000000000000001e-05
412 1 2.4123144911297044e-06 1 -4.0000000000000024e-06 -2.8000000000000003e-05 -2.8000000000000003e-05
413 1 2.9812419534965472e-06 1 -4.0000000000000024e-06 -2.8000000000000003e-05 -2.0000000000000005e-05
414 1 2.1126105007735989e-06 1 -4.0000000000000024e-06 -2.8000000000000003e-05 -1.2000000000000004e-05
415 1 3.1014110521605554e-06 1 -4.0000000000000024e-06 -2.8000000000000003e-05 -4.0000000000000024e-06
416 1 1.2977262931691708e-06 1 -4.0000000000000024e-06 -2.8000000000000003e-05 3.9999999999999956e-06
417 1 3.3235081316175433e-06 1 -4.0000000000000024e-06 -2.8000000000000003e-05 1.1999999999999994e-05
418 1 1.7509539128724085e-06 1 -4.0000000000000024e-06 -2.8000000000000003e-05 1.9999999999999991e-05
419 1 1.978883554001299e-06 1 -4.0000000000000024e-06 -2.8000000000000003e-05 2.7999999999999996e-05
420 1 2.3451993140327605e-06 1 -4.0000000000000024e-06 -2.8000000000000003e-05 3.5999999999999987e-05
421 1 2.0811374129604825e-06 1 -4.0000000000000024e-06 -2.0000000000000005e-05 -3.6000000000000001e-05
422 1 1.4284522474606962e-06 1 -4.0000000000000024e-06 -2.0000000000000005e-05 -2.8000000000000003e-05
423 1 1.6896874120647491e-06 1 -4.0000000000000024e-06 -2.0000000000000005e-05 -2.0000000000000005e-05
424 1 1.0226740106956389e-06 1 -4.0000000000000024e-06 -2.0000000000000005e-05 -1.2000000000000004e-05
425 1 1.9912772130620987e-06 1 -4.0000000000000024e-06 -2.0000000000000005e-05 -4.0000000000000024e-06
426 1 1.8403596208516955e-06 1 -4.0000000000000024e-06 -2.0000000000000005e-05 3.9999999999999956e-06
427 1 3.125539912292887e-06 1 -4.0000000000000024e-06 -2.0000000000000005e-05 1.1999999999999994e-05
428 1 2.2454145838222409e-06 1 -4.0000000000000024e-06 -2.0000000000000005e-05 1.9999999999999991e-05
429 1 2.0782447132558973e-06 1 -4.0000000000000024e-06 -2.0000000000000005e-05 2.7999999999999996e-05
430 1 1.2694251408355582e-06 1 -4.0000000000000024e-06 -2.0000000000000005e-05 3.5999999999999987e-05
431 1 1.3544175888064367e-06 1 -4.0000000000000024e-06 -1.2000000000000004e-05 -3.6000000000000001e-05
432 1 1.9343792416260002e-06 1 -4.0000000000000024e-06 -1.2000000000000004e-05 -2.8000000000000003e-05
433 1 1.7889581186199937e-06 1 -4.0000000000000024e-06 -1.2000000000000004e-05 -2.0000000000000005e-05
434 1 1.6191680144957933e-06 1 -4.0000000000000024e-06 -1.2000000000000004e-05 -1.2000000000000004e-05
435 1 1.6706673288185987e-06 1 -4.0000000000000024e-06 -1.2000000000000004e-05 -4.0000000000000024e-06
436 1 1.3807507486105702e-06 1 -4.0000000000000024e-06 -1.2000000000000004e-05 3.9999999999999956e-06
437 1 3.1789417728010201e-06 1 -4.0000000000000024e-06 -1.2000000000000004e-05 1.1999999999999994e-05
438 1 1.2427879118251014e-06 1 -4.0000000000000024e-06 -1.2000000000000004e-05 1.9999999999999991e-05
439 1 1.7348989470160775e-06 1 -4.0000000000000024e-06 -1.2000000000000004e-05 2.7999999999999996e-05
440 1 1.2530147793543768e-06 1 -4.0000000000000024e-06 -1.2000000000000004e-05 3.5999999999999987e-05
441 1 1.6797110582037619e-06 1 -4.0000000000000024e-06 -4.0000000000000024e-06 -3.6000000000000001e-05
442 1 2.0425108803337708e-06 1 -4.0000000000000024e-06 -4.0000000000000024e-06 -2.8000000000000003e-05
443 1 1.889894788234264e-06 1 -4.0000000000000024e-06 -4.0000000000000024e-06 -2.0000000000000005e-05
444 1 2.3933116370166558e-06 1 -4.0000000000000024e-06 -4.0000000000000024e-06 -1.2000000000000004e-05
445 1 1.5280115994350821e-06 1 -4.0000000000000024e-06 -4.0000000000000024e-06 -4.0000000000000024e-06
446 1 1.4437758904219182e-06 1 -4.0000000000000024e-06 -4.0000000000000024e-06 3.9999999999999956e-06
447 1 2.9386826595668012e-06 1 -4.0000000000000024e-06 -4.0000000000000024e-06 1.1999999999999994e-05
448 1 2.6710969688108398e-06 1 -4.0000000000000024e-06 -4.0000000000000024e-06 1.9999999999999991e-05
449 1 1.4236236439104574e-06 1 -4.0000000000000024e-06 -4.0000000000000024e-06 2.7999999999999996e-05
450 1 1.6878181949150284e-06 1 -4.0000000000000024e-06 -4.0000000000000024e-06 3.5999999999999987e-05
451 1 2.4812734942200512e-06 1 -4.0000000000000024e-06 3.9999999999999956e-06 -3.6000000000000001e-05
452 1 1.2108042503537179e-06 1 -4.0000000000000024e-06 3.9999999999999956e-06 -2.8000000000000003e-05
453 1 3.3010741831599847e-06 1 -4.0000000000000024e-06 3.9999999999999956e-06 -2.0000000000000005e-05
454 1 1.2837859340306623e-06 1 -4.0000000000000024e-06 3.9999999999999956e-06 -1.2000000000000004e-05
455 1 2.7224979862718818e-06 1 -4.0000000000000024e-06 3.9999999999999956e-06 -4.0000000000000024e-06
456 1 2.2797373967184632e-06 1 -4.0000000000000024e-06 3.9999999999999956e-06 3.9999999999999956e-06
457 1 2.2923631384267883e-06 1 -4.0000000000000024e-06 3.9999999999999956e-06 1.1999999999999994e-05
458 1 2.2585756127876275e-06 1 -4.0000000000000024e-06 3.9999999999999956e-06 1.9999999999999991e-05
459 1 1.6637049158240032e-06 1 -4.0000000000000024e-06 3.9999999999999956e-06 2.7999999999999996e-05
460 1 2.6900621764901499e-06 1 -4.0000000000000024e-06 3.9999999999999956e-06 3.5999999999999987e-05
461 1 1.4015283114899325e-06 1 -4.0000000000000024e-06 1.1999999999999994e-05 -3.6000000000000001e-05
462 1 1.8191335759516225e-06 1 -4.0000000000000024e-06 1.1999999999999994e-05 -2.8000000000000003e-05
463 1 4.2353696718628292e-06 1 -4.0000000000000024e-06 1.1999999999999994e-05 -2.0000000000000005e-05
464 1 1.3545684299661174e-06 1 -4.0000000000000024e-06 1.1999999999999994e-05 -1.2000000000000004e-05
465 1 2.1523620653712569e-06 1 -4.0000000000000024e-06 1.1999999999999994e-05 -4.0000000000000024e-06
466 1 1.4496839155106529e-06 1 -4.0000000000000024e-06 1.1999999999999994e-05 3.9999999999999956e-06
467 1 1.833514061149265e-06 1 -4.0000000000000024e-06 1.1999999999999994e-05 1.1999999999999994e-05
468 1 1.6258599379161733e-06 1 -4.0000000000000024e-06 1.1999999999999994e-05 1.9999999999999991e-05
469 1 1.5620159857883544e-06 1 -4.0000000000000024e-06 1.1999999999999994e-05 2.7999999999999996e-05
470 1 1.5213629278919835e-06 1 -4.0000000000000024e-06 1.1999999999999994e-05 3.5999999999999987e-05
471 1 1.7583614511184387e-06 1 -4.0000000000000024e-06 1.9999999999999991e-05 -3.6000000000000001e-05
472 1 2.6647640519139791e-06 1 -4.0000000000000024e-06 1.9999999999999991e-05 -2.8000000000000003e-05
473 1 2.4847582530720232e-06 1 -4.0000000000000024e-06 1.9999999999999991e-05 -2.0000000000000005e-05
474 1 2.5125862044455853e-06 1 -4.0000000000000024e-06 1.9999999999999991e-05 -1.2000000000000004e-05
475 1 1.5364019709468574e-06 1 -4.0000000000000024e-06 1.9999999999999991e-05 -4.0000000000000024e-06
476 1 2.5477192993784751e-06 1 -4.0000000000000024e-06 1.9999999999999991e-05 3.9999999999999956e-06
477 1 1.4704004060468826e-06 1 -4.0000000000000024e-06 1.9999999999999991e-05 1.1999999999999994e-05
478 1 2.470432078134634e-06 1 -4.0000000000000024e-06 1.9999999999999991e-05 1.9999999999999991e-05
479 1 2.9529327093727251e-06 1 -4.0000000000000024e-06 1.9999999999999991e-05 2.7999999999999996e-05
480 1 1.6692093345076722e-06 1 -4.0000000000000024e-06 1.9999999999999991e-05 3.5999999999999987e-05
481 1 2.3145625811579364e-06 1 -4.0000000000000024e-06 2.7999999999999996e-05 -3.6000000000000001e-05
482 1 1.8771645334487106e-06 1 -4.0000000000000024e-06 2.7999999999999996e-05 -2.8000000000000003e-05
483 1 1.4303625200187826e-06 1 -4.0000000000000024e-06 2.7999999999999996e-05 -2.0000000000000005e-05
484 1 2.9865148057480503e-06 1 -4.0000000000000024e-06 2.7999999999999996e-05 -1.2000000000000004e-05
485 1 3.0744370895753547e-06 1 -4.0000000000000024e-06 2.7999999999999996e-05 -4.0000000000000024e-06
486 1 1.6798565092891945e-06 1 -4.0000000000000024e-06 2.7999999999999996e-05 3.9999999999999956e-06
487 1 2.1295366995795666e-06 1 -4.0000000000000024e-06 2.7999999999999996e-05 1.1999999999999994e-05
488 1 2.5767987205393822e-06 1 -4.0000000000000024e-06 2.7999999999999996e-05 1.9999999999999991e-05
489 1 1.2143032639993037e-06 1 -4.0000000000000024e-06 2.7999999999999996e-05 2.7999999999999996e-05
490 1 2.4485357467693268e-06 1 -4.0000000000000024e-06 2.7999999999999996e-05 3.5999999999999987e-05
491 1 1.4254113045154762e-06 1 -4.0000000000000024e-06 3.5999999999999987e-05 -3.6000000000000001e-05
492 1 1.0636553664921102e-06 1 -4.0000000000000024e-06 3.5999999999999987e-05 -2.8000000000000003e-05
493 1 2.8803105714690759e-06 1 -4.0000000000000024e-06 3.5999999999999987e-05 -2.0000000000000005e-05
494 1 1.7791967901954527e-06 1 -4.0000000000000024e-06 3.5999999999999987e-05 -1.2000000000000004e-05
495 1 3.866429302603581e-06 1 -4.0000000000000024e-06 3.5999999999999987e-05 -4.0000000000000024e-06
496 1 1.2616603363691438e-06 1 -4.0000000000000024e-06 3.5999999999999987e-05 3.9999999999999956e-06
497 1 2.0971725894081488e-06 1 -4.0000000000000024e-06 3.5999999999999987e-05 1.1999999999999994e-05
498 1 1.9074115933867618e-06 1 -4.0000000000000024e-06 3.5999999999999987e-05 1.9999999999999991e-05
499 1 1.8474685984526727e-06 1 -4.0000000000000024e-06 3.5999999999999987e-05 2.7999999999999996e-05
500 1 1.7938194723908576e-06 1 -4.0000000000000024e-06 3.5999999999999987e-05 3.5999999999999987e-05
501 1 2.5982912820422361e-06 1 3.9999999999999956e-06 -3.6000000000000001e-05 -3.6000000000000001e-05
502 1 1.8638465333300055e-06 1 3.9999999999999956e-06 -3.6000000000000001e-05 -2.8000000000000003e-05
503 1 1.771771468763288e-06 1 3.9999999999999956e-06 -3.6000000000000001e-05 -2.0000000000000005e-05
504 1 3.0172770546859814e-06 1 3.9999999999999956e-06 -3.6000000000000001e-05 -1.2000000000000004e-05
505 1 2.4405682975052959e-06 1 3.9999999999999956e-06 -3.6000000000000001e-05 -4.0000000000000024e-06
506 1 1.9158738097041659e-06 1 3.9999999999999956e-06 -3.6000000000000001e-05 3.9999999999999956e-06
507 1 3.3572236478074978e-06 1 3.9999999999999956e-06 -3.6000000000000001e-05 1.1999999999999994e-05
508 1 2.1922607937774078e-06 1 3.9999999999999956e-06 -3.6000000000000001e-05 1.9999999999999991e-05
509 1 1.5625172014477212e-06 1 3.9999999999999956e-06 -3.6000000000000001e-05 2.7999999999999996e-05
510 1 1.053559180648154e-06 1 3.9999999999999956e-06 -3.6000000000000001e-05 3.5999999999999987e-05
511 1 2.2102937675500431e-06 1 3.9999999999999956e-06 -2.8000000000000003e-05 -3.6000000000000001e-05
512 1 2.0195385223996527e-06 1 3.9999999999999956e-06 -2.8000000000000003e-05 -2.8000000000000003e-05
513 1 2.2365108766901249e-06 1 3.9999999999999956e-06 -2.8000000000000003e-05 -2.0000000000000005e-05
514 1 2.5080078836755938e-06 1 3.9999999999999956e-06 -2.8000000000000003e-05 -1.2000000000000004e-05
515 1 1.2645558350635943e-06 1 3.9999999999999956e-06 -2.8000000000000003e-05 -4.0000000000000024e-06
516 1 3.109236308433164e-06 1 3.9999999999999956e-06 -2.8000000000000003e-05 3.9999999999999956e-06
517 1 2.8067257201523692e-06 1 3.9999999999999956e-06 -2.8000000000000003e-05 1.1999999999999994e-05
518 1 1.7026953652008354e-06 1 3.9999999999999956e-06 -2.8000000000000003e-05 1.9999999999999991e-05
519 1 1.1392019803353507e-06 1 3.9999999999999956e-06 -2.8000000000000003e-05 2.7999999999999996e-05
520 1 1.9457030200193702e-06 1 3.9999999999999956e-06 -2.8000000000000003e-05 3.5999999999999987e-05
521 1 4.0121546767270039e-06 1 3.9999999999999956e-06 -2.0000000000000005e-05 -3.6000000000000001e-05
522 1 1.4228097117902533e-06 1 3.9999999999999956e-06 -2.0000000000000005e-05 -2.8000000000000003e-05
523 1 1.2228161772473428e-06 1 3.9999999999999956e-06 -2.0000000000000005e-05 -2.0000000000000005e-05
524 1 1.6052302189163065e-06 1 3.9999999999999956e-06 -2.0000000000000005e-05 -1.2000000000000004e-05
525 1 1.9535419156300571e-06 1 3.9999999999999956e-06 -2.0000000000000005e-05 -4.0000000000000024e-06
526 1 1.3824435501862967e-06 1 3.9999999999999956e-06 -2.0000000000000005e-05 3.9999999999999956e-06
527 1 2.9500497669844924e-06 1 3.9999999999999956e-06 -2.0000000000000005e-05 1.1999999999999994e-05
528 1 2.3310039905318715e-06 1 3.9999999999999956e-06 -2.0000000000000005e-05 1.9999999999999991e-05
529 1 1.9465795948077476e-06 1 3.9999999999999956e-06 -2.0000000000000005e-05 2.7999999999999996e-05
530 1 2.0025993511583303e-06 1 3.9999999999999956e-06 -2.0000000000000005e-05 3.5999999999999987e-05
531 1 2.4895335911471004e-06 1 3.9999999999999956e-06 -1.2000000000000004e-05 -3.6000000000000001e-05
532 1 2.0741507972593027e-06 1 3.9999999999999956e-06 -1.2000000000000004e-05 -2.8000000000000003e-05
533 1 2.3581335153092327e-06 1 3.9999999999999956e-06 -1.2000000000000004e-05 -2.0000000000000005e-05
534 1 2.3145376637823806e-06 1 3.9999999999999956e-06 -1.2000000000000004e-05 -1.2000000000000004e-05
535 1 1.2978399156563973e-06 1 3.9999999999999956e-06 -1.2000000000000004e-05 -4.0000000000000024e-06
536 1 1.3544776351060026e-06 1 3.9999999999999956e-06 -1.2000000000000004e-05 3.9999999999999956e-06
537 1 1.6896063264888496e-06 1 3.9999999999999956e-06 -1.2000000000000004e-05 1.1999999999999994e-05
538 1 1.715546969763233e-06 1 3.9999999999999956e-06 -1.2000000000000004e-05 1.9999999999999991e-05
539 1 1.178060381723717e-06 1 3.9999999999999956e-06 -1.2000000000000004e-05 2.7999999999999996e-05
540 1 9.6960999950228541e-07 1 3.9999999999999956e-06 -1.2000000000000004e-05 3.5999999999999987e-05
541 1 1.6248157195885694e-06 1 3.9999999999999956e-06 -4.0000000000000024e-06 -3.6000000000000001e-05
542 1 4.6492266189967326e-06 1 3.9999999999999956e-06 -4.0000000000000024e-06 -2.8000000000000003e-05
543 1 2.8700189585992288e-06 1 3.9999999999999956e-06 -4.0000000000000024e-06 -2.0000000000000005e-05
544 1 1.8346204254069716e-06 1 3.9999999999999956e-06 -4.0000000000000024e-06 -1.2000000000000004e-05
545 1 1.4850080011833067e-06 1 3.9999999999999956e-06 -4.0000000000000024e-06 -4.0000000000000024e-06
546 1 1.4069241312911381e-06 1 3.9999999999999956e-06 -4.0000000000000024e-06 3.9999999999999956e-06
547 1 1.8238915552364518e-06 1 3.9999999999999956e-06 -4.0000000000000024e-06 1.1999999999999994e-05
548 1 2.0685894350334484e-06 1 3.9999999999999956e-06 -4.0000000000000024e-06 1.9999999999999991e-05
549 1 1.9451530438060307e-06 1 3.9999999999999956e-06 -4.0000000000000024e-06 2.7999999999999996e-05
550 1 1.6520758804580915e-06 1 3.9999999999999956e-06 -4.0000000000000024e-06 3.5999999999999987e-05
551 1 1.5817210412601797e-06 1 3.9999999999999956e-06 3.9999999999999956e-06 -3.6000000000000001e-05
552 1 2.0031045036556893e-06 1 3.9999999999999956e-06 3.9999999999999956e-06 -2.8000000000000003e-05
553 1 1.7070303164287469e-06 1 3.9999999999999956e-06 3.9999999999999956e-06 -2.0000000000000005e-05
554 1 2.069854850146644e-06 1 3.9999999999999956e-06 3.9999999999999956e-06 -1.2000000000000004e-05
555 1 1.2463098239274469e-06 1 3.9999999999999956e-06 3.9999999999999956e-06 -4.0000000000000024e-06
556 1 2.2670834649566865e-06 1 3.9999999999999956e-06 3.9999999999999956e-06 3.9999999999999956e-06
557 1 3.3331942848334158e-06 1 3.9999999999999956e-06 3.9999999999999956e-06 1.1999999999999994e-05
558 1 1.8238203206254852e-06 1 3.9999999999999956e-06 3.9999999999999956e-06 1.9999999999999991e-05
559 1 1.5393438817466755e-06 1 3.9999999999999956e-06 3.9999999999999956e-06 2.7999999999999996e-05
560 1 2.723127016345398e-06 1 3.9999999999999956e-06 3.9999999999999956e-06 3.5999999999999987e-05
561 1 2.0089987182103852e-06 1 3.9999999999999956e-06 1.1999999999999994e-05 -3.6000000000000001e-05
562 1 2.3894832748011664e-06 1 3.9999999999999956e-06 1.1999999999999994e-05 -2.8000000000000003e-05
563 1 2.023226444444698e-06 1 3.9999999999999956e-06 1.1999999999999994e-05 -2.0000000000000005e-05
564 1 1.5230483862595801e-06 1 3.9999999999999956e-06 1.1999999999999994e-05 -1.2000000000000004e-05
565 1 1.6351873433046978e-06 1 3.9999999999999956e-06 1.1999999999999994e-05 -4.0000000000000024e-06
566 1 3.8955529518777427e-06 1 3.9999999999999956e-06 1.1999999999999994e-05 3.9999999999999956e-06
567 1 2.1948846934905729e-06 1 3.9999999999999956e-06 1.1999999999999994e-05 1.1999999999999994e-05
568 1 1.8212518688960594e-06 1 3.9999999999999956e-06 1.1999999999999994e-05 1.9999999999999991e-05
569 1 1.4946345524155495e-06 1 3.9999999999999956e-06 1.1999999999999994e-05 2.7999999999999996e-05
570 1 1.9704369430794425e-06 1 3.9999999999999956e-06 1.1999999999999994e-05 3.5999999999999987e-05
571 1 2.2497714265193027e-06 1 3.9999999999999956e-06 1.9999999999999991e-05 -3.6000000000000001e-05
572 1 1.6878994612215896e-06 1 3.9999999999999956e-06 1.9999999999999991e-05 -2.8000000000000003e-05
573 1 1.7830891188917426e-06 1 3.9999999999999956e-06 1.9999999999999991e-05 -2.0000000000000005e-05
574 1 1.3231991747563295e-06 1 3.9999999999999956e-06 1.9999999999999991e-05 -1.2000000000000004e-05
575 1 1.3989953907270665e-06 1 3.9999999999999956e-06 1.9999999999999991e-05 -4.0000000000000024e-06
576 1 2.0882706410467246e-06 1 3.9999999999999956e-06 1.9999999999999991e-05 3.9999999999999956e-06
577 1 2.0391339361592095e-06 1 3.9999999999999956e-06 1.9999999999999991e-05 1.1999999999999994e-05
578 1 1.3438325296351592e-06 1 3.9999999999999956e-06 1.9999999999999991e-05 1.9999999999999991e-05
579 1 1.7852299245247604e-06 1 3.9999999999999956e-06 1.9999999999999991e-05 2.7999999999999996e-05
580 1 2.5393821449456778e-06 1 3.9999999999999956e-06 1.9999999999999991e-05 3.5999999999999987e-05
581 1 1.7489426556428653e-06 1 3.9999999999999956e-06 2.7999999999999996e-05 -3.6000000000000001e-05
582 1 1.8608195515884659e-06 1 3.9999999999999956e-06 2.7999999999999996e-05 -2.8000000000000003e-05
583 1 2.3308366777311929e-06 1 3.9999999999999956e-06 2.7999999999999996e-05 -2.0000000000000005e-05
584 1 1.957791429668064e-06 1 3.9999999999999956e-06 2.7999999999999996e-05 -1.2000000000000004e-05
585 1 2.53007400694616e-06 1 3.9999999999999956e-06 2.7999999999999996e-05 -4.0000000000000024e-06
586 1 1.1652704185504356e-06 1 3.9999999999999956e-06 2.7999999999999996e-05 3.9999999999999956e-06
587 1 2.9001691157747557e-06 1 3.9999999999999956e-06 2.7999999999999996e-05 1.1999999999999994e-05
588 1 2.1433007776604113e-06 1 3.9999999999999956e-06 2.7999999999999996e-05 1.9999999999999991e-05
589 1 1.8690219985038268e-06 1 3.9999999999999956e-06 2.7999999999999996e-05 2.7999999999999996e-05
590 1 1.8391132775005688e-06 1 3.9999999999999956e-06 2.7999999999999996e-05 3.5999999999999987e-05
591 1 2.798959669327844e-06 1 3.9999999999999956e-06 3.5999999999999987e-05 -3.6000000000000001e-05
592 1 1.6166994911428602e-06 1 3.9999999999999956e-06 3.5999999999999987e-05 -2.8000000000000003e-05
593 1 2.8186744337507648e-06 1 3.9999999999999956e-06 3.5999999999999987e-05 -2.0000000000000005e-05
594 1 2.2952783469491909e-06 1 3.9999999999999956e-06 3.5999999999999987e-05 -1.2000000000000004e-05
595 1 1.5719133310876773e-06 1 3.9999999999999956e-06 3.5999999999999987e-05 -4.0000000000000024e-06
596 1 1.2938240643405077e-06 1 3.9999999999999956e-06 3.5999999999999987e-05 3.9999999999999956e-06
597 1 2.627056309927867e-06 1 3.9999999999999956e-06 3.5999999999999987e-05 1.1999999999999994e-05
598 1 3.7169718944576155e-06 1 3.9999999999999956e-06 3.5999999999999987e-05 1.9999999999999991e-05
599 1 2.1932996295243152e-06 1 3.9999999999999956e-06 3.5999999999999987e-05 2.7999999999999996e-05
600 1 2.5146278796251722e-06 1 3.9999999999999956e-06 3.5999999999999987e-05 3.5999999999999987e-05
601 1 2.7734491961574839e-06 1 1.1999999999999994e-05 -3.6000000000000001e-05 -3.6000000000000001e-05
602 1 1.3760803611134053e-06 1 1.1999999999999994e-05 -3.6000000000000001e-05 -2.8000000000000003e-05
603 1 3.5386846555281221e-06 1 1.1999999999999994e-05 -3.6000000000000001e-05 -2.0000000000000005e-05
604 1 1.4813896996148105e-06 1 1.1999999999999994e-05 -3.6000000000000001e-05 -1.2000000000000004e-05
605 1 2.7162135119941392e-06 1 1.1999999999999994e-05 -3.6000000000000001e-05 -4.0000000000000024e-06
606 1 2.1935720255275898e-06 1 1.1999999999999994e-05 -3.6000000000000001e-05 3.9999999999999956e-06
607 1 2.1310255708387263e-06 1 1.1999999999999994e-05 -3.6000000000000001e-05 1.1999999999999994e-05
608 1 2.9262683248995635e-06 1 1.1999999999999994e-05 -3.6000000000000001e-05 1.9999999999999991e-05
609 1 3.045792198290985e-06 1 1.1999999999999994e-05 -3.6000000000000001e-05 2.7999999999999996e-05
610 1 3.0955650003959741e-06 1 1.1999999999999994e-05 -3.6000000000000001e-05 3.5999999999999987e-05
611 1 1.4152411192600984e-06 1 1.1999999999999994e-05 -2.8000000000000003e-05 -3.6000000000000001e-05
612 1 1.8010864789794838e-06 1 1.1999999999999994e-05 -2.8000000000000003e-05 -2.8000000000000003e-05
613 1 1.121637392095589e-06 1 1.1999999999999994e-05 -2.8000000000000003e-05 -2.0000000000000005e-05
614 1 3.6510645979514961e-06 1 1.1999999999999994e-05 -2.8000000000000003e-05 -1.2000000000000004e-05
615 1 2.5316924369919187e-06 1 1.1999999999999994e-05 -2.8000000000000003e-05 -4.0000000000000024e-06
616 1 1.4484867359571157e-06 1 1.1999999999999994e-05 -2.8000000000000003e-05 3.9999999999999956e-06
617 1 2.655039354043561e-06 1 1.1999999999999994e-05 -2.8000000000000003e-05 1.1999999999999994e-05
618 1 2.4091796947589279e-06 1 1.1999999999999994e-05 -2.8000000000000003e-05 1.9999999999999991e-05
619 1 3.144161182672882e-06 1 1.1999999999999994e-05 -2.8000000000000003e-05 2.7999999999999996e-05
620 1 2.7426213561242112e-06 1 1.1999999999999994e-05 -2.8000000000000003e-05 3.5999999999999987e-05
621 1 1.5765543333110554e-06 1 1.1999999999999994e-05 -2.0000000000000005e-05 -3.6000000000000001e-05
622 1 1.3521111392103818e-06 1 1.1999999999999994e-05 -2.0000000000000005e-05 -2.8000000000000003e-05
623 1 2.5439094712636789e-06 1 1.1999999999999994e-05 -2.0000000000000005e-05 -2.0000000000000005e-05
624 1 2.5834375204846861e-06 1 1.1999999999999994e-05 -2.0000000000000005e-05 -1.2000000000000004e-05
625 1 1.4602988739095106e-06 1 1.1999999999999994e-05 -2.0000000000000005e-05 -4.0000000000000024e-06
626 1 2.7990633275838857e-06 1 1.1999999999999994e-05 -2.0000000000000005e-05 3.9999999999999956e-06
627 1 2.6740120984437951e-06 1 1.1999999999999994e-05 -2.0000000000000005e-05 1.1999999999999994e-05
628 1 1.3415526650763142e-06 1 1.1999999999999994e-05 -2.0000000000000005e-05 1.9999999999999991e-05
629 1 1.4368734316174534e-06 1 1.1999999999999994e-05 -2.0000000000000005e-05 2.7999999999999996e-05
630 1 2.2136053641000624e-06 1 1.1999999999999994e-05 -2.0000000000000005e-05 3.5999999999999987e-05
631 1 1.893634957940618e-06 1 1.1999999999999994e-05 -1.2000000000000004e-05 -3.6000000000000001e-05
632 1 1.3059155336634574e-06 1 1.1999999999999994e-05 -1.2000000000000004e-05 -2.8000000000000003e-05
633 1 1.7877572514162323e-06 1 1.1999999999999994e-05 -1.2000000000000004e-05 -2.0000000000000005e-05
634 1 1.3539984975448934e-06 1 1.1999999999999994e-05 -1.2000000000000004e-05 -1.2000000000000004e-05
635 1 2.0322870917387371e-06 1 1.1999999999999994e-05 -1.2000000000000004e-05 -4.0000000000000024e-06
636 1 1.7695537852798509e-06 1 1.1999999999999994e-05 -1.2000000000000004e-05 3.9999999999999956e-06
637 1 1.9393659045130457e-06 1 1.1999999999999994e-05 -1.2000000000000004e-05 1.1999999999999994e-05
638 1 1.567047994869599e-06 1 1.1999999999999994e-05 -1.2000000000000004e-05 1.9999999999999991e-05
639 1 2.769090038712533e-06 1 1.1999999999999994e-05 -1.2000000000000004e-05 2.7999999999999996e-05
640 1 2.1515561931397626e-06 1 1.1999999999999994e-05 -1.2000000000000004e-05 3.5999999999999987e-05
641 1 2.8448543539709047e-06 1 1.1999999999999994e-05 -4.0000000000000024e-06 -3.6000000000000001e-05
642 1 1.5433991543828593e-06 1 1.1999999999999994e-05 -4.0000000000000024e-06 -2.8000000000000003e-05
643 1 1.7487826799113376e-06 1 1.1999999999999994e-05 -4.0000000000000024e-06 -2.0000000000000005e-05
644 1 1.9766746690992557e-06 1 1.1999999999999994e-05 -4.0000000000000024e-06 -1.2000000000000004e-05
645 1 1.9842551154017817e-06 1 1.1999999999999994e-05 -4.0000000000000024e-06 -4.0000000000000024e-06
646 1 1.7033063592329268e-06 1 1.1999999999999994e-05 -4.0000000000000024e-06 3.9999999999999956e-06
647 1 1.9762037570597808e-06 1 1.1999999999999994e-05 -4.0000000000000024e-06 1.1999999999999994e-05
648 1 1.1668305723384267e-06 1 1.1999999999999994e-05 -4.0000000000000024e-06 1.9999999999999991e-05
649 1 1.3978924829031559e-06 1 1.1999999999999994e-05 -4.0000000000000024e-06 2.7999999999999996e-05
650 1 2.7884177861488358e-06 1 1.1999999999999994e-05 -4.0000000000000024e-06 3.5999999999999987e-05
651 1 1.7262779875864657e-06 1 1.1999999999999994e-05 3.9999999999999956e-06 -3.6000000000000001e-05
652 1 1.8230802835673709e-06 1 1.1999999999999994e-05 3.9999999999999956e-06 -2.8000000000000003e-05
653 1 1.5738192000421522e-06 1 1.1999999999999994e-05 3.9999999999999956e-06 -2.0000000000000005e-05
654 1 1.5680556133561156e-06 1 1.1999999999999994e-05 3.9999999999999956e-06 -1.2000000000000004e-05
655 1 2.0680811354365727e-06 1 1.1999999999999994e-05 3.9999999999999956e-06 -4.0000000000000024e-06
656 1 2.5545844378046549e-06 1 1.1999999999999994e-05 3.9999999999999956e-06 3.9999999999999956e-06
657 1 2.0032540508953125e-06 1 1.1999999999999994e-05 3.9999999999999956e-06 1.1999999999999994e-05
658 1 3.6137521700693152e-06 1 1.1999999999999994e-05 3.9999999999999956e-06 1.9999999999999991e-05
659 1 1.1876272965529566e-06 1 1.1999999999999994e-05 3.9999999999999956e-06 2.7999999999999996e-05
660 1 1.2029060109211493e-06 1 1.1999999999999994e-05 3.9999999999999956e-06 3.5999999999999987e-05
661 1 2.130374172876089e-06 1 1.1999999999999994e-05 1.1999999999999994e-05 -3.6000000000000001e-05
662 1 2.1765587654674502e-06 1 1.1999999999999994e-05 1.1999999999999994e-05 -2.8000000000000003e-05
663 1 1.7633441064183295e-06 1 1.1999999999999994e-05 1.1999999999999994e-05 -2.0000000000000005e-05
664 1 1.9070075430838794e-06 1 1.1999999999999994e-05 1.1999999999999994e-05 -1.2000000000000004e-05
665 1 1.3657291367039823e-06 1 1.1999999999999994e-05 1.1999999999999994e-05 -4.0000000000000024e-06
666 1 3.191868438138306e-06 1 1.1999999999999994e-05 1.1999999999999994e-05 3.9999999999999956e-06
667 1 1.3646567010975841e-06 1 1.1999999999999994e-05 1.1999999999999994e-05 1.1999999999999994e-05
668 1 1.6446802110319802e-06 1 1.1999999999999994e-05 1.1999999999999994e-05 1.9999999999999991e-05
669 1 1.304568146349731e-06 1 1.1999999999999994e-05 1.1999999999999994e-05 2.7999999999999996e-05
670 1 2.7801411282732113e-06 1 1.1999999999999994e-05 1.1999999999999994e-05 3.5999999999999987e-05
671 1 1.1042873068420938e-06 1 1.1999999999999994e-05 1.9999999999999991e-05 -3.6000000000000001e-05
672 1 2.1007329795721292e-06 1 1.1999999999999994e-05 1.9999999999999991e-05 -2.8000000000000003e-05
673 1 2.0178041962513926e-06 1 1.1999999999999994e-05 1.9999999999999991e-05 -2.0000000000000005e-05
674 1 1.3729227852860534e-06 1 1.1999999999999994e-05 1.9999999999999991e-05 -1.2000000000000004e-05
675 1 3.14279397375296e-06 1 1.1999999999999994e-05 1.9999999999999991e-05 -4.0000000000000024e-06
676 1 1.5322599247911299e-06 1 1.1999999999999994e-05 1.9999999999999991e-05 3.9999999999999956e-06
677 1 1.4399169353175686e-06 1 1.1999999999999994e-05 1.9999999999999991e-05 1.1999999999999994e-05
678 1 1.9632653882881705e-06 1 1.1999999999999994e-05 1.9999999999999991e-05 1.9999999999999991e-05
679 1 1.6328264949212125e-06 1 1.1999999999999994e-05 1.9999999999999991e-05 2.7999999999999996e-05
680 1 2.9606194882332077e-06 1 1.1999999999999994e-05 1.9999999999999991e-05 3.5999999999999987e-05
681 1 1.7905594585193749e-06 1 1.1999999999999994e-05 2.7999999999999996e-05 -3.6000000000000001e-05
682 1 1.3314419144754052e-06 1 1.1999999999999994e-05 2.7999999999999996e-05 -2.8000000000000003e-05
683 1 1.7990221292918782e-06 1 1.1999999999999994e-05 2.7999999999999996e-05 -2.0000000000000005e-05
684 1 1.6948492518441311e-06 1 1.1999999999999994e-05 2.7999999999999996e-05 -1.2000000000000004e-05
685 1 1.9931064411797548e-06 1 1.1999999999999994e-05 2.7999999999999996e-05 -4.0000000000000024e-06
686 1 3.4993434188696443e-06 1 1.1999999999999994e-05 2.7999999999999996e-05 3.9999999999999956e-06
687 1 2.9329795540893923e-06 1 1.1999999999999994e-05 2.7999999999999996e-05 1.1999999999999994e-05
688 1 2.8664892507787242e-06 1 1.1999999999999994e-05 2.7999999999999996e-05 1.9999999999999991e-05
689 1 1.7141934223720943e-06 1 1.1999999999999994e-05 2.7999999999999996e-05 2.7999999999999996e-05
690 1 1.7340591887859619e-06 1 1.1999999999999994e-05 2.7999999999999996e-05 3.5999999999999987e-05
691 1 2.7190840197106607e-06 1 1.1999999999999994e-05 3.5999999999999987e-05 -3.6000000000000001e-05
692 1 1.8616865728285434e-06 1 1.1999999999999994e-05 3.5999999999999987e-05 -2.8000000000000003e-05
693 1 1.6773736774747611e-06 1 1.1999999999999994e-05 3.5999999999999987e-05 -2.0000000000000005e-05
694 1 1.7416366310035872e-06 1 1.1999999999999994e-05 3.5999999999999987e-05 -1.2000000000000004e-05
695 1 1.5150604665645477e-06 1 1.1999999999999994e-05 3.5999999999999987e-05 -4.0000000000000024e-06
696 1 1.9097554503898362e-06 1 1.1999999999999994e-05 3.5999999999999987e-05 3.9999999999999956e-06
697 1 3.0167194570217569e-06 1 1.1999999999999994e-05 3.5999999999999987e-05 1.1999999999999994e-05
698 1 1.1075933629338418e-06 1 1.1999999999999994e-05 3.5999999999999987e-05 1.9999999999999991e-05
699 1 1.4193487524475499e-06 1 1.1999999999999994e-05 3.5999999999999987e-05 2.7999999999999996e-05
700 1 2.8598321418357582e-06 1 1.1999999999999994e-05 3.5999999999999987e-05 3.5999999999999987e-05
701 1 2.1806047985283183e-06 1 1.9999999999999991e-05 -3.6000000000000001e-05 -3.6000000000000001e-05
702 1 2.3222318863099821e-06 1 1.9999999999999991e-05 -3.6000000000000001e-05 -2.8000000000000003e-05
703 1 3.6297563745992012e-06 1 1.9999999999999991e-05 -3.6000000000000001e-05 -2.0000000000000005e-05
704 1 3.6581762758470088e-06 1 1.9999999999999991e-05 -3.6000000000000001e-05 -1.2000000000000004e-05
705 1 1.2564899134128088e-06 1 1.9999999999999991e-05 -3.6000000000000001e-05 -4.0000000000000024e-06
706 1 2.8187949807963177e-06 1 1.9999999999999991e-05 -3.6000000000000001e-05 3.9999999999999956e-06
707 1 1.7436569574924213e-06 1 1.9999999999999991e-05 -3.6000000000000001e-05 1.1999999999999994e-05
708 1 1.7130113272663534e-06 1 1.9999999999999991e-05 -3.6000000000000001e-05 1.9999999999999991e-05
709 1 2.3327226300415104e-06 1 1.9999999999999991e-05 -3.6000000000000001e-05 2.7999999999999996e-05
710 1 4.0044084347353585e-06 1 1.9999999999999991e-05 -3.6000000000000001e-05 3.5999999999999987e-05
711 1 2.1318347894846612e-06 1 1.9999999999999991e-05 -2.8000000000000003e-05 -3.6000000000000001e-05
712 1 1.3795631136463626e-06 1 1.9999999999999991e-05 -2.8000000000000003e-05 -2.8000000000000003e-05
713 1 1.1562815454703228e-06 1 1.9999999999999991e-05 -2.8000000000000003e-05 -2.0000000000000005e-05
714 1 1.9604108623357568e-06 1 1.9999999999999991e-05 -2.8000000000000003e-05 -1.2000000000000004e-05
715 1 1.6838373116780016e-06 1 1.9999999999999991e-05 -2.8000000000000003e-05 -4.0000000000000024e-06
716 1 1.2854970478988256e-06 1 1.9999999999999991e-05 -2.8000000000000003e-05 3.9999999999999956e-06
717 1 1.241629958173179e-06 1 1.9999999999999991e-05 -2.8000000000000003e-05 1.1999999999999994e-05
718 1 1.6550536819694386e-06 1 1.9999999999999991e-05 -2.8000000000000003e-05 1.9999999999999991e-05
719 1 2.604904267027893e-06 1 1.9999999999999991e-05 -2.8000000000000003e-05 2.7999999999999996e-05
720 1 1.1390164478297421e-06 1 1.9999999999999991e-05 -2.8000000000000003e-05 3.5999999999999987e-05
721 1 1.9446630491217308e-06 1 1.9999999999999991e-05 -2.0000000000000005e-05 -3.6000000000000001e-05
722 1 2.1840508694026574e-06 1 1.9999999999999991e-05 -2.0000000000000005e-05 -2.8000000000000003e-05
723 1 2.3501381963742088e-06 1 1.9999999999999991e-05 -2.0000000000000005e-05 -2.0000000000000005e-05
724 1 2.5535041060263513e-06 1 1.9999999999999991e-05 -2.0000000000000005e-05 -1.2000000000000004e-05
725 1 1.3749997894781153e-06 1 1.9999999999999991e-05 -2.0000000000000005e-05 -4.0000000000000024e-06
726 1 2.3928184508253637e-06 1 1.9999999999999991e-05 -2.0000000000000005e-05 3.9999999999999956e-06
727 1 1.5077344911556411e-06 1 1.9999999999999991e-05 -2.0000000000000005e-05 1.1999999999999994e-05
728 1 1.7319240932448166e-06 1 1.9999999999999991e-05 -2.0000000000000005e-05 1.9999999999999991e-05
729 1 1.7470726815538959e-06 1 1.9999999999999991e-05 -2.0000000000000005e-05 2.7999999999999996e-05
730 1 2.048499656320466e-06 1 1.9999999999999991e-05 -2.0000000000000005e-05 3.5999999999999987e-05
731 1 1.755162102294333e-06 1 1.9999999999999991e-05 -1.2000000000000004e-05 -3.6000000000000001e-05
732 1 1.143379022530806e-06 1 1.9999999999999991e-05 -1.2000000000000004e-05 -2.8000000000000003e-05
733 1 1.818139782575674e-06 1 1.9999999999999991e-05 -1.2000000000000004e-05 -2.0000000000000005e-05
734 1 1.527920187912969e-06 1 1.9999999999999991e-05 -1.2000000000000004e-05 -1.2000000000000004e-05
735 1 2.5457935551043458e-06 1 1.9999999999999991e-05 -1.2000000000000004e-05 -4.0000000000000024e-06
736 1 1.6107706712968354e-06 1 1.9999999999999991e-05 -1.2000000000000004e-05 3.9999999999999956e-06
737 1 1.0644157966807776e-06 1 1.9999999999999991e-05 -1.2000000000000004e-05 1.1999999999999994e-05
738 1 1.9412019664312519e-06 1 1.9999999999999991e-05 -1.2000000000000004e-05 1.9999999999999991e-05
739 1 9.674389073350291e-07 1 1.9999999999999991e-05 -1.2000000000000004e-05 2.7999999999999996e-05
740 1 2.7333560969194148e-06 1 1.9999999999999991e-05 -1.2000000000000004e-05 3.5999999999999987e-05
741 1 3.2071702201241364e-06 1 1.9999999999999991e-05 -4.0000000000000024e-06 -3.6000000000000001e-05
742 1 2.6435938351334523e-06 1 1.9999999999999991e-05 -4.0000000000000024e-06 -2.8000000000000003e-05
743 1 1.9663855587773855e-06 1 1.9999999999999991e-05 -4.0000000000000024e-06 -2.0000000000000005e-05
744 1 2.5884688742530535e-06 1 1.9999999999999991e-05 -4.0000000000000024e-06 -1.2000000000000004e-05
745 1 1.6897821474462483e-06 1 1.9999999999999991e-05 -4.0000000000000024e-06 -4.0000000000000024e-06
746 1 2.0739794306589011e-06 1 1.9999999999999991e-05 -4.0000000000000024e-06 3.9999999999999956e-06
747 1 1.3024250299455457e-06 1 1.9999999999999991e-05 -4.0000000000000024e-06 1.1999999999999994e-05
748 1 1.9812477259499297e-06 1 1.9999999999999991e-05 -4.0000000000000024e-06 1.9999999999999991e-05
749 1 3.4064973541806127e-06 1 1.9999999999999991e-05 -4.0000000000000024e-06 2.7999999999999996e-05
750 1 2.0873235072406376e-06 1 1.9999999999999991e-05 -4.0000000000000024e-06 3.5999999999999987e-05
751 1 1.5236329427571439e-06 1 1.9999999999999991e-05 3.9999999999999956e-06 -3.6000000000000001e-05
752 1 1.4893204003007477e-06 1 1.9999999999999991e-05 3.9999999999999956e-06 -2.8000000000000003e-05
753 1 1.5556755787127241e-06 1 1.9999999999999991e-05 3.9999999999999956e-06 -2.0000000000000005e-05
754 1 1.4437021116595e-06 1 1.9999999999999991e-05 3.9999999999999956e-06 -1.2000000000000004e-05
755 1 1.644025115343135e-06 1 1.9999999999999991e-05 3.9999999999999956e-06 -4.0000000000000024e-06
756 1 2.3728702670234721e-06 1 1.9999999999999991e-05 3.9999999999999956e-06 3.9999999999999956e-06
757 1 1.2126097150572347e-06 1 1.9999999999999991e-05 3.9999999999999956e-06 1.1999999999999994e-05
758 1 1.6198858701200548e-06 1 1.9999999999999991e-05 3.9999999999999956e-06 1.9999999999999991e-05
759 1 1.9719058997001219e-06 1 1.9999999999999991e-05 3.9999999999999956e-06 2.7999999999999996e-05
760 1 1.4432940417730746e-06 1 1.9999999999999991e-05 3.9999999999999956e-06 3.5999999999999987e-05
761 1 2.8187835795418333e-06 1 1.9999999999999991e-05 1.1999999999999994e-05 -3.6000000000000001e-05
762 1 4.2453321818635607e-06 1 1.9999999999999991e-05 1.1999999999999994e-05 -2.8000000000000003e-05
763 1 1.7986272557721543e-06 1 1.9999999999999991e-05 1.1999999999999994e-05 -2.0000000000000005e-05
764 1 1.6657693587234758e-06 1 1.9999999999999991e-05 1.1999999999999994e-05 -1.2000000000000004e-05
765 1 1.5050931713338427e-06 1 1.9999999999999991e-05 1.1999999999999994e-05 -4.0000000000000024e-06
766 1 1.5955248518159149e-06 1 1.9999999999999991e-05 1.1999999999999994e-05 3.9999999999999956e-06
767 1 2.8192228494558327e-06 1 1.9999999999999991e-05 1.1999999999999994e-05 1.1999999999999994e-05
768 1 1.0806735463403972e-06 1 1.9999999999999991e-05 1.1999999999999994e-05 1.9999999999999991e-05
769 1 1.64231368773332e-06 1 1.9999999999999991e-05 1.1999999999999994e-05 2.7999999999999996e-05
770 1 1.8870655543478242e-06 1 1.9999999999999991e-05 1.1999999999999994e-05 3.5999999999999987e-05
771 1 1.8445605208757595e-06 1 1.9999999999999991e-05 1.9999999999999991e-05 -3.6000000000000001e-05
772 1 2.1088621884847026e-06 1 1.9999999999999991e-05 1.9999999999999991e-05 -2.8000000000000003e-05
773 1 1.3809756114527141e-06 1 1.9999999999999991e-05 1.9999999999999991e-05 -2.0000000000000005e-05
774 1 2.2357637613376633e-06 1 1.9999999999999991e-05 1.9999999999999991e-05 -1.2000000000000004e-05
775 1 1.9212544183736713e-06 1 1.9999999999999991e-05 1.9999999999999991e-05 -4.0000000000000024e-06
776 1 2.2360239880316537e-06 1 1.9999999999999991e-05 1.9999999999999991e-05 3.9999999999999956e-06
777 1 1.244584362623351e-06 1 1.9999999999999991e-05 1.9999999999999991e-05 1.1999999999999994e-05
778 1 1.0484603836179149e-06 1 1.9999999999999991e-05 1.9999999999999991e-05 1.9999999999999991e-05
779 1 2.8740114554991693e-06 1 1.9999999999999991e-05 1.9999999999999991e-05 2.7999999999999996e-05
780 1 3.1872238833325067e-06 1 1.9999999999999991e-05 1.9999999999999991e-05 3.5999999999999987e-05
781 1 9.5466099821602e-07 1 1.9999999999999991e-05 2.7999999999999996e-05 -3.6000000000000001e-05
782 1 1.2475945024554268e-06 1 1.9999999999999991e-05 2.7999999999999996e-05 -2.8000000000000003e-05
783 1 3.0784437605093116e-06 1 1.9999999999999991e-05 2.7999999999999996e-05 -2.0000000000000005e-05
784 1 2.1300727371412934e-06 1 1.9999999999999991e-05 2.7999999999999996e-05 -1.2000000000000004e-05
785 1 2.3621212927781039e-06 1 1.9999999999999991e-05 2.7999999999999996e-05 -4.0000000000000024e-06
786 1 1.8397486752475168e-06 1 1.9999999999999991e-05 2.7999999999999996e-05 3.9999999999999956e-06
787 1 2.4361912782654271e-06 1 1.9999999999999991e-05 2.7999999999999996e-05 1.1999999999999994e-05
788 1 1.6871769206922432e-06 1 1.9999999999999991e-05 2.7999999999999996e-05 1.9999999999999991e-05
789 1 1.7746649904808506e-06 1 1.9999999999999991e-05 2.7999999999999996e-05 2.7999999999999996e-05
790 1 2.4490723672049805e-06 1 1.9999999999999991e-05 2.7999999999999996e-05 3.5999999999999987e-05
791 1 1.8494587672938606e-06 1 1.9999999999999991e-05 3.5999999999999987e-05 -3.6000000000000001e-05
792 1 1.5142175476206563e-06 1 1.9999999999999991e-05 3.5999999999999987e-05 -2.8000000000000003e-05
793 1 1.6370970339164953e-06 1 1.9999999999999991e-05 3.5999999999999987e-05 -2.0000000000000005e-05
794 1 1.6214049829052992e-06 1 1.9999999999999991e-05 3.5999999999999987e-05 -1.2000000000000004e-05
795 1 1.3981225306856429e-06 1 1.9999999999999991e-05 3.5999999999999987e-05 -4.0000000000000024e-06
796 1 1.7180840333197665e-06 1 1.9999999999999991e-05 3.5999999999999987e-05 3.9999999999999956e-06
797 1 2.0333941975000471e-06 1 1.9999999999999991e-05 3.5999999999999987e-05 1.1999999999999994e-05
798 1 1.4384178950423447e-06 1 1.9999999999999991e-05 3.5999999999999987e-05 1.9999999999999991e-05
799 1 1.6644988549015922e-06 1 1.9999999999999991e-05 3.5999999999999987e-05 2.7999999999999996e-05
800 1 1.8414466140953708e-06 1 1.9999999999999991e-05 3.5999999999999987e-05 3.5999999999999987e-05
801 1 1.6213709255087349e-06 1 2.7999999999999996e-05 -3.6000000000000001e-05 -3.6000000000000001e-05
802 1 2.1816762998219018e-06 1 2.7999999999999996e-05 -3.6000000000000001e-05 -2.8000000000000003e-05
803 1 2.3565351518194598e-06 1 2.7999999999999996e-05 -3.6000000000000001e-05 -2.0000000000000005e-05
804 1 1.6137950904436823e-06 1 2.7999999999999996e-05 -3.6000000000000001e-05 -1.2000000000000004e-05
805 1 2.8241573403483849e-06 1 2.7999999999999996e-05 -3.6000000000000001e-05 -4.0000000000000024e-06
806 1 2.4392483335087739e-06 1 2.7999999999999996e-05 -3.6000000000000001e-05 3.9999999999999956e-06
807 1 1.4943148716121699e-06 1 2.7999999999999996e-05 -3.6000000000000001e-05 1.1999999999999994e-05
808 1 1.9807837895297095e-06 1 2.7999999999999996e-05 -3.6000000000000001e-05 1.9999999999999991e-05
809 1 1.6057564288032251e-06 1 2.7999999999999996e-05 -3.6000000000000001e-05 2.7999999999999996e-05
810 1 1.3944617039013505e-06 1 2.7999999999999996e-05 -3.6000000000000001e-05 3.5999999999999987e-05
811 1 2.3106071209012239e-06 1 2.7999999999999996e-05 -2.8000000000000003e-05 -3.6000000000000001e-05
812 1 1.5834796748835463e-06 1 2.7999999999999996e-05 -2.8000000000000003e-05 -2.8000000000000003e-05
813 1 3.7014776388521118e-06 1 2.7999999999999996e-05 -2.8000000000000003e-05 -2.0000000000000005e-05
814 1 1.4081534617838142e-06 1 2.7999999999999996e-05 -2.8000000000000003e-05 -1.2000000000000004e-05
815 1 1.2581964015296877e-06 1 2.7999999999999996e-05 -2.8000000000000003e-05 -4.0000000000000024e-06
816 1 2.57826214652786e-06 1 2.7999999999999996e-05 -2.8000000000000003e-05 3.9999999999999956e-06
817 1 1.4621644936711017e-06 1 2.7999999999999996e-05 -2.8000000000000003e-05 1.1999999999999994e-05
818 1 1.9607064312131383e-06 1 2.7999999999999996e-05 -2.8000000000000003e-05 1.9999999999999991e-05
819 1 2.6060422664972548e-06 1 2.7999999999999996e-05 -2.8000000000000003e-05 2.7999999999999996e-05
820 1 2.4471573757847207e-06 1 2.7999999999999996e-05 -2.8000000000000003e-05 3.5999999999999987e-05
821 1 1.9232939112761695e-06 1 2.7999999999999996e-05 -2.0000000000000005e-05 -3.6000000000000001e-05
822 1 2.8942049782517359e-06 1 2.7999999999999996e-05 -2.0000000000000005e-05 -2.8000000000000003e-05
823 1 1.6634713911205329e-06 1 2.7999999999999996e-05 -2.0000000000000005e-05 -2.0000000000000005e-05
824 1 2.1196466761563109e-06 1 2.7999999999999996e-05 -2.0000000000000005e-05 -1.2000000000000004e-05
825 1 2.3323679124131056e-06 1 2.7999999999999996e-05 -2.0000000000000005e-05 -4.0000000000000024e-06
826 1 1.6116315479587785e-06 1 2.7999999999999996e-05 -2.0000000000000005e-05 3.9999999999999956e-06
827 1 3.51107686393997e-06 1 2.7999999999999996e-05 -2.0000000000000005e-05 1.1999999999999994e-05
828 1 1.1817669801275178e-06 1 2.7999999999999996e-05 -2.0000000000000005e-05 1.9999999999999991e-05
829 1 2.2496880660228626e-06 1 2.7999999999999996e-05 -2.0000000000000005e-05 2.7999999999999996e-05
830 1 1.8288037043116248e-06 1 2.7999999999999996e-05 -2.0000000000000005e-05 3.5999999999999987e-05
831 1 2.8068946331113676e-06 1 2.7999999999999996e-05 -1.2000000000000004e-05 -3.6000000000000001e-05
832 1 1.8127066854905236e-06 1 2.7999999999999996e-05 -1.2000000000000004e-05 -2.8000000000000003e-05
833 1 2.2747512389358233e-06 1 2.7999999999999996e-05 -1.2000000000000004e-05 -2.0000000000000005e-05
834 1 1.6414211780700812e-06 1 2.7999999999999996e-05 -1.2000000000000004e-05 -1.2000000000000004e-05
835 1 4.4486492098638704e-06 1 2.7999999999999996e-05 -1.2000000000000004e-05 -4.0000000000000024e-06
836 1 2.4774948080997083e-06 1 2.7999999999999996e-05 -1.2000000000000004e-05 3.9999999999999956e-06
837 1 3.1129381107916339e-06 1 2.7999999999999996e-05 -1.2000000000000004e-05 1.1999999999999994e-05
838 1 2.3226837411497893e-06 1 2.7999999999999996e-05 -1.2000000000000004e-05 1.9999999999999991e-05
839 1 1.9015119334273655e-06 1 2.7999999999999996e-05 -1.2000000000000004e-05 2.7999999999999996e-05
840 1 1.1633980180706207e-06 1 2.7999999999999996e-05 -1.2000000000000004e-05 3.5999999999999987e-05
841 1 1.9831250030588606e-06 1 2.7999999999999996e-05 -4.0000000000000024e-06 -3.6000000000000001e-05
842 1 1.9474828997433708e-06 1 2.7999999999999996e-05 -4.0000000000000024e-06 -2.8000000000000003e-05
843 1 2.2028665997096372e-06 1 2.7999999999999996e-05 -4.0000000000000024e-06 -2.0000000000000005e-05
844 1 2.5512231328215312e-06 1 2.7999999999999996e-05 -4.0000000000000024e-06 -1.2000000000000004e-05
845 1 2.112775796507788e-06 1 2.7999999999999996e-05 -4.0000000000000024e-06 -4.0000000000000024e-06
846 1 1.8190431029036829e-06 1 2.7999999999999996e-05 -4.0000000000000024e-06 3.9999999999999956e-06
847 1 1.7881341275278016e-06 1 2.7999999999999996e-05 -4.0000000000000024e-06 1.1999999999999994e-05
848 1 1.8557132392308367e-06 1 2.7999999999999996e-05 -4.0000000000000024e-06 1.9999999999999991e-05
849 1 1.5408367166926334e-06 1 2.7999999999999996e-05 -4.0000000000000024e-06 2.7999999999999996e-05
850 1 1.9663920287763313e-06 1 2.7999999999999996e-05 -4.0000000000000024e-06 3.5999999999999987e-05
851 1 1.4551270748264723e-06 1 2.7999999999999996e-05 3.9999999999999956e-06 -3.6000000000000001e-05
852 1 1.7807220231414832e-06 1 2.7999999999999996e-05 3.9999999999999956e-06 -2.8000000000000003e-05
853 1 1.6722787696862814e-06 1 2.7999999999999996e-05 3.9999999999999956e-06 -2.0000000000000005e-05
854 1 2.2735979051860208e-06 1 2.7999999999999996e-05 3.9999999999999956e-06 -1.2000000000000004e-05
855 1 2.1342801039730079e-06 1 2.7999999999999996e-05 3.9999999999999956e-06 -4.0000000000000024e-06
856 1 1.6863547191748704e-06 1 2.7999999999999996e-05 3.9999999999999956e-06 3.9999999999999956e-06
857 1 2.6757035642712588e-06 1 2.7999999999999996e-05 3.9999999999999956e-06 1.1999999999999994e-05
858 1 2.069110828336575e-06 1 2.7999999999999996e-05 3.9999999999999956e-06 1.9999999999999991e-05
859 1 1.8808548994498101e-06 1 2.7999999999999996e-05 3.9999999999999956e-06 2.7999999999999996e-05
860 1 2.4234656746152572e-06 1 2.7999999999999996e-05 3.9999999999999956e-06 3.5999999999999987e-05
861 1 3.4045742582884503e-06 1 2.7999999999999996e-05 1.1999999999999994e-05 -3.6000000000000001e-05
862 1 2.4967587892109153e-06 1 2.7999999999999996e-05 1.1999999999999994e-05 -2.8000000000000003e-05
863 1 1.9959827650142603e-06 1 2.7999999999999996e-05 1.1999999999999994e-05 -2.0000000000000005e-05
864 1 1.6959886956130726e-06 1 2.7999999999999996e-05 1.1999999999999994e-05 -1.2000000000000004e-05
865 1 1.4403674179725345e-06 1 2.7999999999999996e-05 1.1999999999999994e-05 -4.0000000000000024e-06
866 1 1.5564001196209865e-06 1 2.7999999999999996e-05 1.1999999999999994e-05 3.9999999999999956e-06
867 1 2.0951574673113514e-06 1 2.7999999999999996e-05 1.1999999999999994e-05 1.1999999999999994e-05
868 1 2.1085928480109465e-06 1 2.7999999999999996e-05 1.1999999999999994e-05 1.9999999999999991e-05
869 1 1.9838951154623075e-06 1 2.7999999999999996e-05 1.1999999999999994e-05 2.7999999999999996e-05
870 1 1.7786090046323383e-06 1 2.7999999999999996e-05 1.1999999999999994e-05 3.5999999999999987e-05
871 1 3.3980876713516584e-06 1 2.7999999999999996e-05 1.9999999999999991e-05 -3.6000000000000001e-05
872 1 1.7492859179006044e-06 1 2.7999999999999996e-05 1.9999999999999991e-05 -2.8000000000000003e-05
873 1 2.0906934570756443e-06 1 2.7999999999999996e-05 1.9999999999999991e-05 -2.0000000000000005e-05
874 1 2.6150445911082597e-06 1 2.7999999999999996e-05 1.9999999999999991e-05 -1.2000000000000004e-05
875 1 1.9232952070228978e-06 1 2.7999999999999996e-05 1.9999999999999991e-05 -4.0000000000000024e-06
876 1 1.1561187741756663e-06 1 2.7999999999999996e-05 1.9999999999999991e-05 3.9999999999999956e-06
877 1 1.584213121956847e-06 1 2.7999999999999996e-05 1.9999999999999991e-05 1.1999999999999994e-05
878 1 1.6463977765754979e-06 1 2.7999999999999996e-05 1.9999999999999991e-05 1.9999999999999991e-05
879 1 1.9017774924510533e-06 1 2.7999999999999996e-05 1.9999999999999991e-05 2.7999999999999996e-05
880 1 1.5391919539097951e-06 1 2.7999999999999996e-05 1.9999999999999991e-05 3.5999999999999987e-05
881 1 1.3775742751114745e-06 1 2.7999999999999996e-05 2.7999999999999996e-05 -3.6000000000000001e-05
882 1 4.0165794886233569e-06 1 2.7999999999999996e-05 2.7999999999999996e-05 -2.8000000000000003e-05
883 1 2.27298217054188e-06 1 2.7999999999999996e-05 2.7999999999999996e-05 -2.0000000000000005e-05
884 1 1.5028899797653599e-06 1 2.7999999999999996e-05 2.7999999999999996e-05 -1.2000000000000004e-05
885 1 1.3603587552903838e-06 1 2.7999999999999996e-05 2.7999999999999996e-05 -4.0000000000000024e-06
886 1 1.7022739928523433e-06 1 2.7999999999999996e-05 2.7999999999999996e-05 3.9999999999999956e-06
887 1 2.1282878289903953e-06 1 2.7999999999999996e-05 2.7999999999999996e-05 1.1999999999999994e-05
888 1 1.0081064939595345e-06 1 2.7999999999999996e-05 2.7999999999999996e-05 1.9999999999999991e-05
889 1 2.2116259940706728e-06 1 2.7999999999999996e-05 2.7999999999999996e-05 2.7999999999999996e-05
890 1 2.2790493438297417e-06 1 2.7999999999999996e-05 2.7999999999999996e-05 3.5999999999999987e-05
891 1 2.7045622953966897e-06 1 2.7999999999999996e-05 3.5999999999999987e-05 -3.6000000000000001e-05
892 1 1.3240020942399152e-06 1 2.7999999999999996e-05 3.5999999999999987e-05 -2.8000000000000003e-05
893 1 1.4032449250497227e-06 1 2.7999999999999996e-05 3.5999999999999987e-05 -2.0000000000000005e-05
894 1 1.2074310949224079e-06 1 2.7999999999999996e-05 3.5999999999999987e-05 -1.2000000000000004e-05
895 1 2.738139534326777e-06 1 2.7999999999999996e-05 3.5999999999999987e-05 -4.0000000000000024e-06
896 1 2.0107235412449702e-06 1 2.7999999999999996e-05 3.5999999999999987e-05 3.9999999999999956e-06
897 1 1.4633916245285148e-06 1 2.7999999999999996e-05 3.5999999999999987e-05 1.1999999999999994e-05
898 1 2.2702355333263634e-06 1 2.7999999999999996e-05 3.5999999999999987e-05 1.9999999999999991e-05
899 1 1.7225819499988728e-06 1 2.7999999999999996e-05 3.5999999999999987e-05 2.7999999999999996e-05
900 1 2.4581140151829036e-06 1 2.7999999999999996e-05 3.5999999999999987e-05 3.5999999999999987e-05
901 1 3.5040846530983026e-06 1 3.5999999999999987e-05 -3.6000000000000001e-05 -3.6000000000000001e-05
902 1 2.8379373052445643e-06 1 3.5999999999999987e-05 -3.6000000000000001e-05 -2.8000000000000003e-05
903 1 1.8004678596406497e-06 1 3.5999999999999987e-05 -3.6000000000000001e-05 -2.0000000000000005e-05
904 1 3.7657827011977481e-06 1 3.5999999999999987e-05 -3.6000000000000001e-05 -1.2000000000000004e-05
905 1 1.6069001294123983e-06 1 3.5999999999999987e-05 -3.6000000000000001e-05 -4.0000000000000024e-06
906 1 2.2198738703824714e-06 1 3.5999999999999987e-05 -3.6000000000000001e-05 3.9999999999999956e-06
907 1 1.6113121955688606e-06 1 3.5999999999999987e-05 -3.6000000000000001e-05 1.1999999999999994e-05
908 1 3.0116278683484418e-06 1 3.5999999999999987e-05 -3.6000000000000001e-05 1.9999999999999991e-05
909 1 2.9169865081844634e-06 1 3.5999999999999987e-05 -3.6000000000000001e-05 2.7999999999999996e-05
910 1 1.8315210090235164e-06 1 3.5999999999999987e-05 -3.6000000000000001e-05 3.5999999999999987e-05
911 1 1.3289227456402315e-06 1 3.5999999999999987e-05 -2.8000000000000003e-05 -3.6000000000000001e-05
912 1 1.7023875200384668e-06 1 3.5999999999999987e-05 -2.8000000000000003e-05 -2.8000000000000003e-05
913 1 2.1904340844840186e-06 1 3.5999999999999987e-05 -2.8000000000000003e-05 -2.0000000000000005e-05
914 1 1.9586807120385814e-06 1 3.5999999999999987e-05 -2.8000000000000003e-05 -1.2000000000000004e-05
915 1 2.3684885752608908e-06 1 3.5999999999999987e-05 -2.8000000000000003e-05 -4.0000000000000024e-06
916 1 1.3478273846865548e-06 1 3.5999999999999987e-05 -2.8000000000000003e-05 3.9999999999999956e-06
917 1 1.8687328504095459e-06 1 3.5999999999999987e-05 -2.8000000000000003e-05 1.1999999999999994e-05
918 1 2.8149590459260193e-06 1 3.5999999999999987e-05 -2.8000000000000003e-05 1.9999999999999991e-05
919 1 1.9198277002160636e-06 1 3.5999999999999987e-05 -2.8000000000000003e-05 2.7999999999999996e-05
920 1 2.1567407161293719e-06 1 3.5999999999999987e-05 -2.8000000000000003e-05 3.5999999999999987e-05
921 1 1.0709889279890791e-06 1 3.5999999999999987e-05 -2.0000000000000005e-05 -3.6000000000000001e-05
922 1 2.0227691686703206e-06 1 3.5999999999999987e-05 -2.0000000000000005e-05 -2.8000000000000003e-05
923 1 1.8183102049668959e-06 1 3.5999999999999987e-05 -2.0000000000000005e-05 -2.0000000000000005e-05
924 1 2.2024112624298039e-06 1 3.5999999999999987e-05 -2.0000000000000005e-05 -1.2000000000000004e-05
925 1 2.4744219481385835e-06 1 3.5999999999999987e-05 -2.0000000000000005e-05 -4.0000000000000024e-06
926 1 2.6321237643198371e-06 1 3.5999999999999987e-05 -2.0000000000000005e-05 3.9999999999999956e-06
927 1 3.6499514348841338e-06 1 3.5999999999999987e-05 -2.0000000000000005e-05 1.1999999999999994e-05
928 1 2.1904661045726594e-06 1 3.5999999999999987e-05 -2.0000000000000005e-05 1.9999999999999991e-05
929 1 1.3808674620411119e-06 1 3.5999999999999987e-05 -2.0000000000000005e-05 2.7999999999999996e-05
930 1 1.782840240499541e-06 1 3.5999999999999987e-05 -2.0000000000000005e-05 3.5999999999999987e-05
931 1 1.4712947539685804e-06 1 3.5999999999999987e-05 -1.2000000000000004e-05 -3.6000000000000001e-05
932 1 1.8859151850950252e-06 1 3.5999999999999987e-05 -1.2000000000000004e-05 -2.8000000000000003e-05
933 1 2.3176320741835624e-06 1 3.5999999999999987e-05 -1.2000000000000004e-05 -2.0000000000000005e-05
934 1 1.7359977055444372e-06 1 3.5999999999999987e-05 -1.2000000000000004e-05 -1.2000000000000004e-05
935 1 1.7244207771267659e-06 1 3.5999999999999987e-05 -1.2000000000000004e-05 -4.0000000000000024e-06
936 1 1.5612050598172475e-06 1 3.5999999999999987e-05 -1.2000000000000004e-05 3.9999999999999956e-06
937 1 2.1660697498680256e-06 1 3.5999999999999987e-05 -1.2000000000000004e-05 1.1999999999999994e-05
938 1 1.731653039303446e-06 1 3.5999999999999987e-05 -1.2000000000000004e-05 1.9999999999999991e-05
939 1 1.6241672479394609e-06 1 3.5999999999999987e-05 -1.2000000000000004e-05 2.7999999999999996e-05
940 1 2.2937791988079764e-06 1 3.5999999999999987e-05 -1.2000000000000004e-05 3.5999999999999987e-05
941 1 1.2125646712065114e-06 1 3.5999999999999987e-05 -4.0000000000000024e-06 -3.6000000000000001e-05
942 1 1.866381531922835e-06 1 3.5999999999999987e-05 -4.0000000000000024e-06 -2.8000000000000003e-05
943 1 1.2590386983867306e-06 1 3.5999999999999987e-05 -4.0000000000000024e-06 -2.0000000000000005e-05
944 1 2.8199693817852689e-06 1 3.5999999999999987e-05 -4.0000000000000024e-06 -1.2000000000000004e-05
945 1 1.444632593802059e-06 1 3.5999999999999987e-05 -4.0000000000000024e-06 -4.0000000000000024e-06
946 1 1.0353232015090529e-06 1 3.5999999999999987e-05 -4.0000000000000024e-06 3.9999999999999956e-06
947 1 1.5026509433025808e-06 1 3.5999999999999987e-05 -4.0000000000000024e-06 1.1999999999999994e-05
948 1 1.6914071751053594e-06 1 3.5999999999999987e-05 -4.0000000000000024e-06 1.9999999999999991e-05
949 1 1.216028995830718e-06 1 3.5999999999999987e-05 -4.0000000000000024e-06 2.7999999999999996e-05
950 1 1.9457136078350599e-06 1 3.5999999999999987e-05 -4.0000000000000024e-06 3.5999999999999987e-05
951 1 2.176865935612889e-06 1 3.5999999999999987e-05 3.9999999999999956e-06 -3.6000000000000001e-05
952 1 2.7261486147083703e-06 1 3.5999999999999987e-05 3.9999999999999956e-06 -2.8000000000000003e-05
953 1 1.3278933102680727e-06 1 3.5999999999999987e-05 3.9999999999999956e-06 -2.0000000000000005e-05
954 1 1.1323980962147409e-06 1 3.5999999999999987e-05 3.9999999999999956e-06 -1.2000000000000004e-05
955 1 2.1298296479884684e-06 1 3.5999999999999987e-05 3.9999999999999956e-06 -4.0000000000000024e-06
956 1 1.7246342047182447e-06 1 3.5999999999999987e-05 3.9999999999999956e-06 3.9999999999999956e-06
957 1 1.0683291334127747e-06 1 3.5999999999999987e-05 3.9999999999999956e-06 1.1999999999999994e-05
958 1 2.8788210576672637e-06 1 3.5999999999999987e-05 3.9999999999999956e-06 1.9999999999999991e-05
959 1 2.2712312528253881e-06 1 3.5999999999999987e-05 3.9999999999999956e-06 2.7999999999999996e-05
960 1 2.2434964968511116e-06 1 3.5999999999999987e-05 3.9999999999999956e-06 3.5999999999999987e-05
961 1 1.6269677066834334e-06 1 3.5999999999999987e-05 1.1999999999999994e-05 -3.6000000000000001e-05
962 1 1.0468805018925074e-06 1 3.5999999999999987e-05 1.1999999999999994e-05 -2.8000000000000003e-05
963 1 1.7323482013397281e-06 1 3.5999999999999987e-05 1.1999999999999994e-05 -2.0000000000000005e-05
964 1 2.9680050154278599e-06 1 3.5999999999999987e-05 1.1999999999999994e-05 -1.2000000000000004e-05
965 1 1.9607238231669479e-06 1 3.5999999999999987e-05 1.1999999999999994e-05 -4.0000000000000024e-06
966 1 2.1986196694151644e-06 1 3.5999999999999987e-05 1.1999999999999994e-05 3.9999999999999956e-06
967 1 1.3930937874067303e-06 1 3.5999999999999987e-05 1.1999999999999994e-05 1.1999999999999994e-05
968 1 1.6533283529160882e-06 1 3.5999999999999987e-05 1.1999999999999994e-05 1.9999999999999991e-05
969 1 1.4375973075000991e-06 1 3.5999999999999987e-05 1.1999999999999994e-05 2.7999999999999996e-05
970 1 2.6850301665589542e-06 1 3.5999999999999987e-05 1.1999999999999994e-05 3.5999999999999987e-05
971 1 2.1613201645183594e-06 1 3.5999999999999987e-05 1.9999999999999991e-05 -3.6000000000000001e-05
972 1 1.4671665011334291e-06 1 3.5999999999999987e-05 1.9999999999999991e-05 -2.8000000000000003e-05
973 1 1.417507833908635e-06 1 3.5999999999999987e-05 1.9999999999999991e-05 -2.0000000000000005e-05
974 1 1.4937306199115555e-06 1 3.5999999999999987e-05 1.9999999999999991e-05 -1.2000000000000004e-05
975 1 2.8128661376659221e-06 1 3.5999999999999987e-05 1.9999999999999991e-05 -4.0000000000000024e-06
976 1 2.2301621964903498e-06 1 3.5999999999999987e-05 1.9999999999999991e-05 3.9999999999999956e-06
977 1 3.2677077842241549e-06 1 3.5999999999999987e-05 1.9999999999999991e-05 1.1999999999999994e-05
978 1 2.5806303065614553e-06 1 3.5999999999999987e-05 1.9999999999999991e-05 1.9999999999999991e-05
979 1 1.319835785624986e-06 1 3.5999999999999987e-05 1.9999999999999991e-05 2.7999999999999996e-05
980 1 2.3567271772077294e-06 1 3.5999999999999987e-05 1.9999999999999991e-05 3.5999999999999987e-05
981 1 2.7389534104232451e-06 1 3.5999999999999987e-05 2.7999999999999996e-05 -3.6000000000000001e-05
982 1 2.2909096161634169e-06 1 3.5999999999999987e-05 2.7999999999999996e-05 -2.8000000000000003e-05
983 1 3.2077801792271914e-06 1 3.5999999999999987e-05 2.7999999999999996e-05 -2.0000000000000005e-05
984 1 2.0412513189016819e-06 1 3.5999999999999987e-05 2.7999999999999996e-05 -1.2000000000000004e-05
985 1 1.5547857344600266e-06 1 3.5999999999999987e-05 2.7999999999999996e-05 -4.0000000000000024e-06
986 1 1.5439024250511715e-06 1 3.5999999999999987e-05 2.7999999999999996e-05 3.9999999999999956e-06
987 1 2.1912853708154028e-06 1 3.5999999999999987e-05 2.7999999999999996e-05 1.1999999999999994e-05
988 1 1.6916113627415989e-06 1 3.5999999999999987e-05 2.7999999999999996e-05 1.9999999999999991e-05
989 1 1.4359935696527892e-06 1 3.5999999999999987e-05 2.7999999999999996e-05 2.7999999999999996e-05
990 1 2.4951398999725811e-06 1 3.5999999999999987e-05 2.7999999999999996e-05 3.5999999999999987e-05
991 1 1.1881019658893748e-06 1 3.5999999999999987e-05 3.5999999999999987e-05 -3.6000000000000001e-05
992 1 1.9021454091932546e-06 1 3.5999999999999987e-05 3.5999999999999987e-05 -2.8000000000000003e-05
993 1 1.2302667266872636e-06 1 3.5999999999999987e-05 3.5999999999999987e-05 -2.0000000000000005e-05
994 1 1.0650960314599642e-06 1 3.5999999999999987e-05 3.5999999999999987e-05 -1.2000000000000004e-05
995 1 1.8923951723063671e-06 1 3.5999999999999987e-05 3.5999999999999987e-05 -4.0000000000000024e-06
996 1 1.4941396635327255e-06 1 3.5999999999999987e-05 3.5999999999999987e-05 3.9999999999999956e-06
997 1 2.2184091360643227e-06 1 3.5999999999999987e-05 3.5999999999999987e-05 1.1999999999999994e-05
998 1 1.694076121237607e-06 1 3.5999999999999987e-05 3.5999999999999987e-05 1.9999999999999991e-05
999 1 2.1305225421530737e-06 1 3.5999999999999987e-05 3.5999999999999987e-05 2.7999999999999996e-05
1000 1 1.493273841501693e-06 1 3.5999999999999987e-05 3.5999999999999987e-05 3.5999999999999987e-05

Velocities

1 0 0 0 0 0 0
2 0 0 0 0 0 0
3 0 0 0 0 0 0
4 0 0 0 0 0 0
5 0 0 0 0 0 0
6 0 0 0 0 0 0
7 0 0 0 0 0 0
8 0 0 0 0 0 0
9 0 0 0 0 0 0
10 0 0 0 0 0 0
11 0 0 0 0 0 0
12 0 0 0 0 0 0
13 0 0 0 0 0 0
14 0 0 0 0 0 0
15 0 0 0 0 0 0
16 0 0 0 0 0 0
17 0 0 0 0 0 0
18 0 0 0 0 0 0
19 0 0 0 0 0 0
20 0 0 0 0 0 0
21 0 0 0 0 0 0
22 0 0 0 0 0 0
23 0 0 0 0 0 0
24 0 0 0 0 0 0
25 0 0 0 0 0 0
26 0 0 0 0 0 0
27 0 0 0 0 0 0
28 0 0 0 0 0 0
29 0 0 0 0 0 0
30 0 0 0 0 0 0
31 0 0 0 0 0 0
32 0 0 0 0 0 0
33 0 0 0 0 0 0
34 0 0 0 0 0 0
35 0 0 0 0 0 0
36 0 0 0 0 0 0
37 0 0 0 0 0 0
38 0 0 0 0 0 0
39 0 0 0 0 0 0
40 0 0 0 0 0 0
41 0 0 0 0 0 0
42 0 0 0 0 0 0
43 0 0 0 0 0 0
44 0 0 0 0 0 0
45 0 0 0 0 0 0
46 0 0 0 0 0 0
47 0 0 0 0 0 0
48 0 0 0 0 0 0
49 0 0 0 0 0 0
50 0 0 0 0 0 0
51 0 0 0 0 0 0
52 0 0 0 0 0 0
53 0 0 0 0 0 0
54 0 0 0 0 0 0
55 0 0 0 0 0 0
56 0 0 0 0 0 0
57 0 0 0 0 0 0
58 0 0 0 0 0 0
59 0 0 0 0 0 0
60 0 0 0 0 0 0
61 0 0 0 0 0 0
62 0 0 0 0 0 0
63 0 0 0 0 0 0
64 0 0 0 0 0 0
65 0 0 0 0 0 0
66 0 0 0 0 0 0
67 0 0 0 0 0 0
68 0 0 0 0 0 0
69 0 0 0 0 0 0
70 0 0 0 0 0 0
71 0 0 0 0 0 0
72 0 0 0 0 0 0
73 0 0 0 0 0 0
74 0 0 0 0 0 0
75 0 0 0 0 0 0
76 0 0 0 0 0 0
77 0 0 0 0 0 0
78 0 0 0 0 0 0
79 0 0 0 0 0 0
80 0 0 0 0 0 0
81 0 0 0 0 0 0
82 0 0 0 0 0 0
83 0 0 0 0 0 0
84 0 0 0 0 0 0
85 0 0 0 0 0 0
86 0 0 0 0 0 0
87 0 0 0 0 0 0
88 0 0 0 0 0 0
89 0 0 0 0 0 0
90 0 0 0 0 0 0
91 0 0 0 0 0 0
92 0 0 0 0 0 0
93 0 0 0 0 0 0
94 0 0 0 0 0 0
95 0 0 0 0 0 0
96 0 0 0 0 0 0
97 0 0 0 0 0 0
98 0 0 0 0 0 0
99 0 0 0 0 0 0
100 0 0 0 0 0 0
101 0 0 0 0 0 0
102 0 0 0 0 0 0
103 0 0 0 0 0 0
104 0 0 0 0 0 0
105 0 0 0 0 0 0
106 0 0 0 0 0 0
107 0 0 0 0 0 0
108 0 0 0 0 0 0
109 0 0 0 0 0 0
110 0 0 0 0 0 0
111 0 0 0 0 0 0
112 0 0 0 0 0 0
113 0 0 0 0 0 0
114 0 0 0 0 0 0
115 0 0 0 0 0 0
116 0 0 0 0 0 0
117 0 0 0 0 0 0
118 0 0 0 0 0 0
119 0 0 0 0 0 0
120 0 0 0 0 0 0
121 0 0 0 0 0 0
122 0 0 0 0 0 0
123 0 0 0 0 0 0
124 0 0 0 0 0 0
125 0 0 0 0 0 0
126 0 0 0 0 0 0
127 0 0 0 0 0 0
128 0 0 0 0 0 0
129 0 0 0 0 0 0
130 0 0 0 0 0 0
131 0 0 0 0 0 0
132 0 0 0 0 0 0
133 0 0 0 0 0 0
134 0 0 0 0 0 0
135 0 0 0 0 0 0
136 0 0 0 0 0 0
137 0 0 0 0 0 0
138 0 0 0 0 0 0
139 0 0 0 0 0 0
140 0 0 0 0 0 0
141 0 0 0 0 0 0
142 0 0 0 0 0 0
143 0 0 0 0 0 0
144 0 0 0 0 0 0
145 0 0 0 0 0 0
146 0 0 0 0 0 0
147 0 0 0 0 0 0
148 0 0 0 0 0 0
149 0 0 0 0 0 0
150 0 0 0 0 0 0
151 0 0 0 0 0 0
152 0 0 0 0 0 0
153 0 0 0 0 0 0
154 0 0 0 0 0 0
155 0 0 0 0 0 0
156 0 0 0 0 0 0
157 0 0 0 0 0 0
158 0 0 0 0 0 0
159 0 0 0 0 0 0
160 0 0 0 0 0 0
161 0 0 0 0 0 0
162 0 0 0 0 0 0
163 0 0 0 0 0 0
164 0 0 0 0 0 0
165 0 0 0 0 0 0
166 0 0 0 0 0 0
167 0 0 0 0 0 0
168 0 0 0 0 0 0
169 0 0 0 0 0 0
170 0 0 0 0 0 0
171 0 0 0 0 0 0
172 0 0 0 0 0 0
173 0 0 0 0 0 0
174 0 0 0 0 0 0
175 0 0 0 0 0 0
176 0 0 0 0 0 0
177 0 0 0 0 0 0
178 0 0 0 0 0 0
179 0 0 0 0 0 0
180 0 0 0 0 0 0
181 0 0 0 0 0 0
182 0 0 0 0 0 0
183 0 0 0 0 0 0
184 0 0 0 0 0 0
185 0 0 0 0 0 0
186 0 0 0 0 0 0
187 0 0 0 0 0 0
188 0 0 0 0 0 0
189 0 0 0 0 0 0
190 0 0 0 0 0 0
191 0 0 0 0 0 0
192 0 0 0 0 0 0
193 0 0 0 0 0 0
194 0 0 0 0 0 0
195 0 0 0 0 0 0
196 0 0 0 0 0 0
197 0 0 0 0 0 0
198 0 0 0 0 0 0
199 0 0 0 0 0 0
200 0 0 0 0 0 0
201 0 0 0 0 0 0
202 0 0 0 0 0 0
203 0 0 0 0 0 0
204 0 0 0 0 0 0
205 0 0 0 0 0 0
206 0 0 0 0 0 0
207 0 0 0 0 0 0
208 0 0 0 0 0 0
209 0 0 0 0 0 0
210 0 0 0 0 0 0
211 0 0 0 0 0 0
212 0 0 0 0 0 0
213 0 0 0 0 0 0
214 0 0 0 0 0 0
215 0 0 0 0 0 0
216 0 0 0 0 0 0
217 0 0 0 0 0 0
218 0 0 0 0 0 0
219 0 0 0 0 0 0
220 0 0 0 0 0 0
221 0 0 0 0 0 0
222 0 0 0 0 0 0
223 0 0 0 0 0 0
224 0 0 0 0 0 0
225 0 0 0 0 0 0
226 0 0 0 0 0 0
227 0 0 0 0 0 0
228 0 0 0 0 0 0
229 0 0 0 0 0 0
230 0 0 0 0 0 0
231 0 0 0 0 0 0
232 0 0 0 0 0 0
233 0 0 0 0 0 0
234 0 0 0 0 0 0
235 0 0 0 0 0 0
236 0 0 0 0 0 0
237 0 0 0 0 0 0
238 0 0 0 0 0 0
239 0 0 0 0 0 0
240 0 0 0 0 0 0
241 0 0 0 0 0 0
242 0 0 0 0 0 0
243 0 0 0 0 0 0
244 0 0 0 0 0 0
245 0 0 0 0 0 0
246 0 0 0 0 0 0
247 0 0 0 0 0 0
248 0 0 0 0 0 0
249 0 0 0 0 0 0
250 0 0 0 0 0 0
251 0 0 0 0 0 0
252 0 0 0 0 0 0
253 0 0 0 0 0 0
254 0 0 0 0 0 0
255 0 0 0 0 0 0
256 0 0 0 0 0 0
257 0 0 0 0 0 0
258 0 0 0 0 0 0
259 0 0 0 0 0 0
260 0 0 0 0 0 0
261 0 0 0 0 0 0
262 0 0 0 0 0 0
263 0 0 0 0 0 0
264 0 0 0 0 0 0
265 0 0 0 0 0 0
266 0 0 0 0 0 0
267 0 0 0 0 0 0
268 0 0 0 0 0 0
269 0 0 0 0 0 0
270 0 0 0 0 0 0
271 0 0 0 0 0 0
272 0 0 0 0 0 0
273 0 0 0 0 0 0
274 0 0 0 0 0 0
275 0 0 0 0 0 0
276 0 0 0 0 0 0
277 0 0 0 0 0 0
278 0 0 0 0 0 0
279 0 0 0 0 0 0
280 0 0 0 0 0 0
281 0 0 0 0 0 0
282 0 0 0 0 0 0
283 0 0 0 0 0 0
284 0 0 0 0 0 0
285 0 0 0 0 0 0
286 0 0 0 0 0 0
287 0 0 0 0 0 0
288 0 0 0 0 0 0
289 0 0 0 0 0 0
290 0 0 0 0 0 0
291 0 0 0 0 0 0
292 0 0 0 0 0 0
293 0 0 0 0 0 0
294 0 0 0 0 0 0
295 0 0 0 0 0 0
296 0 0 0 0 0 0
297 0 0 0 0 0 0
298 0 0 0 0 0 0
299 0 0 0 0 0 0
300 0 0 0 0 0 0
301 0 0 0 0 0 0
302 0 0 0 0 0 0
303 0 0 0 0 0 0
304 0 0 0 0 0 0
305 0 0 0 0 0 0
306 0 0 0 0 0 0
307 0 0 0 0 0 0
308 0 0 0 0 0 0
309 0 0 0 0 0 0
310 0 0 0 0 0 0
311 0 0 0 0 0 0
312 0 0 0 0 0 0
313 0 0 0 0 0 0
314 0 0 0 0 0 0
315 0 0 0 0 0 0
316 0 0 0 0 0 0
317 0 0 0 0 0 0
318 0 0 0 0 0 0
319 0 0 0 0 0 0
320 0 0 0 0 0 0
321 0 0 0 0 0 0
322 0 0 0 0 0 0
323 0 0 0 0 0 0
324 0 0 0 0 0 0
325 0 0 0 0 0 0
326 0 0 0 0 0 0
327 0 0 0 0 0 0
328 0 0 0 0 0 0
329 0 0 0 0 0 0
330 0 0 0 0 0 0
331 0 0 0 0 0 0
332 0 0 0 0 0 0
333 0 0 0 0 0 0
334 0 0 0 0 0 0
335 0 0 0 0 0 0
336 0 0 0 0 0 0
337 0 0 0 0 0 0
338 0 0 0 0 0 0
339 0 0 0 0 0 0
340 0 0 0 0 0 0
341 0 0 0 0 0 0
342 0 0 0 0 0 0
343 0 0 0 0 0 0
344 0 0 0 0 0 0
345 0 0 0 0 0 0
346 0 0 0 0 0 0
347 0 0 0 0 0 0
348 0 0 0 0 0 0
349 0 0 0 0 0 0
350 0 0 0 0 0 0
351 0 0 0 0 0 0
352 0 0 0 0 0 0
353 0 0 0 0 0 0
354 0 0 0 0 0 0
355 0 0 0 0 0 0
356 0 0 0 0 0 0
357 0 0 0 0 0 0
358 0 0 0 0 0 0
359 0 0 0 0 0 0
360 0 0 0 0 0 0
361 0 0 0 0 0 0
362 0 0 0 0 0 0
363 0 0 0 0 0 0
364 0 0 0 0 0 0
365 0 0 0 0 0 0
366 0 0 0 0 0 0
367 0 0 0 0 0 0
368 0 0 0 0 0 0
369 0 0 0 0 0 0
370 0 0 0 0 0 0
371 0 0 0 0 0 0
372 0 0 0 0 0 0
373 0 0 0 0 0 0
374 0 0 0 0 0 0
375 0 0 0 0 0 0
376 0 0 0 0 0 0
377 0 0 0 0 0 0
378 0 0 0 0 0 0
379 0 0 0 0 0 0
380 0 0 0 0 0 0
381 0 0 0 0 0 0
382 0 0 0 0 0 0
383 0 0 0 0 0 0
384 0 0 0 0 0 0
385 0 0 0 0 0 0
386 0 0 0 0 0 0
387 0 0 0 0 0 0
388 0 0 0 0 0 0
389 0 0 0 0 0 0
390 0 0 0 0 0 0
391 0 0 0 0 0 0
392 0 0 0 0 0 0
393 0 0 0 0 0 0
394 0 0 0 0 0 0
395 0 0 0 0 0 0
396 0 0 0 0 0 0
397 0 0 0 0 0 0
398 0 0 0 0 0 0
399 0 0 0 0 0 0
400 0 0 0 0 0 0
401 0 0 0 0 0 0
402 0 0 0 0 0 0
403 0 0 0 0 0 0
404 0 0 0 0 0 0
405 0 0 0 0 0 0
406 0 0 0 0 0 0
407 0 0 0 0 0 0
408 0 0 0 0 0 0
409 0 0 0 0 0 0
410 0 0 0 0 0 0
411 0 0 0 0 0 0
412 0 0 0 0 0 0
413 0 0 0 0 0 0
414 0 0 0 0 0 0
415 0 0 0 0 0 0
416 0 0 0 0 0 0
417 0 0 0 0 0 0
418 0 0 0 0 0 0
419 0 0 0 0 0 0
420 0 0 0 0 0 0
421 0 0 0 0 0 0
422 0 0 0 0 0 0
423 0 0 0 0 0 0
424 0 0 0 0 0 0
425 0 0 0 0 0 0
426 0 0 0 0 0 0
427 0 0 0 0 0 0
428 0 0 0 0 0 0
429 0 0 0 0 0 0
430 0 0 0 0 0 0
431 0 0 0 0 0 0
432 0 0 0 0 0 0
433 0 0 0 0 0 0
434 0 0 0 0 0 0
435 0 0 0 0 0 0
436 0 0 0 0 0 0
437 0 0 0 0 0 0
438 0 0 0 0 0 0
439 0 0 0 0 0 0
440 0 0 0 0 0 0
441 0 0 0 0 0 0
442 0 0 0 0 0 0
443 0 0 0 0 0 0
444 0 0 0 0 0 0
445 0 0 0 0 0 0
446 0 0 0 0 0 0
447 0 0 0 0 0 0
448 0 0 0 0 0 0
449 0 0 0 0 0 0
450 0 0 0 0 0 0
451 0 0 0 0 0 0
452 0 0 0 0 0 0
453 0 0 0 0 0 0
454 0 0 0 0 0 0
455 0 0 0 0 0 0
456 0 0 0 0 0 0
457 0 0 0 0 0 0
458 0 0 0 0 0 0
459 0 0 0 0 0 0
460 0 0 0 0 0 0
461 0 0 0 0 0 0
462 0 0 0 0 0 0
463 0 0 0 0 0 0
464 0 0 0 0 0 0
465 0 0 0 0 0 0
466 0 0 0 0 0 0
467 0 0 0 0 0 0
468 0 0 0 0 0 0
469 0 0 0 0 0 0
470 0 0 0 0 0 0
471 0 0 0 0 0 0
472 0 0 0 0 0 0
473 0 0 0 0 0 0
474 0 0 0 0 0 0
475 0 0 0 0 0 0
476 0 0 0 0 0 0
477 0 0 0 0 0 0
478 0 0 0 0 0 0
479 0 0 0 0 0 0
480 0 0 0 0 0 0
481 0 0 0 0 0 0
482 0 0 0 0 0 0
483 0 0 0 0 0 0
484 0 0 0 0 0 0
485 0 0 0 0 0 0
486 0 0 0 0 0 0
487 0 0 0 0 0 0
488 0 0 0 0 0 0
489 0 0 0 0 0 0
490 0 0 0 0 0 0
491 0 0 0 0 0 0
492 0 0 0 0 0 0
493 0 0 0 0 0 0
494 0 0 0 0 0 0
495 0 0 0 0 0 0
496 0 0 0 0 0 0
497 0 0 0 0 0 0
498 0 0 0 0 0 0
499 0 0 0 0 0 0
500 0 0 0 0 0 0
501 0 0 0 0 0 0
502 0 0 0 0 0 0
503 0 0 0 0 0 0
504 0 0 0 0 0 0
505 0 0 0 0 0 0
506 0 0 0 0 0 0
507 0 0 0 0 0 0
508 0 0 0 0 0 0
509 0 0 0 0 0 0
510 0 0 0 0 0 0
511 0 0 0 0 0 0
512 0 0 0 0 0 0
513 0 0 0 0 0 0
514 0 0 0 0 0 0
515 0 0 0 0 0 0
516 0 0 0 0 0 0
517 0 0 0 0 0 0
518 0 0 0 0 0 0
519 0 0 0 0 0 0
520 0 0 0 0 0 0
521 0 0 0 0 0 0
522 0 0 0 0 0 0
523 0 0 0 0 0 0
524 0 0 0 0 0 0
525 0 0 0 0 0 0
526 0 0 0 0 0 0
527 0 0 0 0 0 0
528 0 0 0 0 0 0
529 0 0 0 0 0 0
530 0 0 0 0 0 0
531 0 0 0 0 0 0
532 0 0 0 0 0 0
533 0 0 0 0 0 0
534 0 0 0 0 0 0
535 0 0 0 0 0 0
536 0 0 0 0 0 0
537 0 0 0 0 0 0
538 0 0 0 0 0 0
539 0 0 0 0 0 0
540 0 0 0 0 0 0
541 0 0 0 0 0 0
542 0 0 0 0 0 0
543 0 0 0 0 0 0
544 0 0 0 0 0 0
545 0 0 0 0 0 0
546 0 0 0 0 0 0
547 0 0 0 0 0 0
548 0 0 0 0 0 0
549 0 0 0 0 0 0
550 0 0 0 0 0 0
551 0 0 0 0 0 0
552 0 0 0 0 0 0
553 0 0 0 0 0 0
554 0 0 0 0 0 0
555 0 0 0 0 0 0
556 0 0 0 0 0 0
557 0 0 0 0 0 0
558 0 0 0 0 0 0
559 0 0 0 0 0 0
560 0 0 0 0 0 0
561 0 0 0 0 0 0
562 0 0 0 0 0 0
563 0 0 0 0 0 0
564 0 0 0 0 0 0
565 0 0 0 0 0 0
566 0 0 0 0 0 0
567 0 0 0 0 0 0
568 0 0 0 0 0 0
569 0 0 0 0 0 0
570 0 0 0 0 0 0
571 0 0 0 0 0 0
572 0 0 0 0 0 0
573 0 0 0 0 0 0
574 0 0 0 0 0 0
575 0 0 0 0 0 0
576 0 0 0 0 0 0
577 0 0 0 0 0 0
578 0 0 0 0 0 0
579 0 0 0 0 0 0
580 0 0 0 0 0 0
581 0 0 0 0 0 0
582 0 0 0 0 0 0
583 0 0 0 0 0 0
584 0 0 0 0 0 0
585 0 0 0 0 0 0
586 0 0 0 0 0 0
587 0 0 0 0 0 0
588 0 0 0 0 0 0
589 0 0 0 0 0 0
590 0 0 0 0 0 0
591 0 0 0 0 0 0
592 0 0 0 0 0 0
593 0 0 0 0 0 0
594 0 0 0 0 0 0
595 0 0 0 0 0 0
596 0 0 0 0 0 0
597 0 0 0 0 0 0
598 0 0 0 0 0 0
599 0 0 0 0 0 0
600 0 0 0 0 0 0
601 0 0 0 0 0 0
602 0 0 0 0 0 0
603 0 0 0 0 0 0
604 0 0 0 0 0 0
605 0 0 0 0 0 0
606 0 0 0 0 0 0
607 0 0 0 0 0 0
608 0 0 0 0 0 0
609 0 0 0 0 0 0
610 0 0 0 0 0 0
611 0 0 0 0 0 0
612 0 0 0 0 0 0
613 0 0 0 0 0 0
614 0 0 0 0 0 0
615 0 0 0 0 0 0
616 0 0 0 0 0 0
617 0 0 0 0 0 0
618 0 0 0 0 0 0
619 0 0 0 0 0 0
620 0 0 0 0 0 0
621 0 0 0 0 0 0
622 0 0 0 0 0 0
623 0 0 0 0 0 0
624 0 0 0 0 0 0
625 0 0 0 0 0 0
626 0 0 0 0 0 0
627 0 0 0 0 0 0
628 0 0 0 0 0 0
629 0 0 0 0 0 0
630 0 0 0 0 0 0
631 0 0 0 0 0 0
632 0 0 0 0 0 0
633 0 0 0 0 0 0
634 0 0 0 0 0 0
635 0 0 0 0 0 0
636 0 0 0 0 0 0
637 0 0 0 0 0 0
638 0 0 0 0 0 0
639 0 0 0 0 0 0
640 0 0 0 0 0 0
641 0 0 0 0 0 0
642 0 0 0 0 0 0
643 0 0 0 0 0 0
644 0 0 0 0 0 0
645 0 0 0 0 0 0
646 0 0 0 0 0 0
647 0 0 0 0 0 0
648 0 0 0 0 0 0
649 0 0 0 0 0 0
650 0 0 0 0 0 0
651 0 0 0 0 0 0
652 0 0 0 0 0 0
653 0 0 0 0 0 0
654 0 0 0 0 0 0
655 0 0 0 0 0 0
656 0 0 0 0 0 0
657 0 0 0 0 0 0
658 0 0 0 0 0 0
659 0 0 0 0 0 0
660 0 0 0 0 0 0
661 0 0 0 0 0 0
662 0 0 0 0 0 0
663 0 0 0 0 0 0
664 0 0 0 0 0 0
665 0 0 0 0 0 0
666 0 0 0 0 0 0
667 0 0 0 0 0 0
668 0 0 0 0 0 0
669 0 0 0 0 0 0
670 0 0 0 0 0 0
671 0 0 0 0 0 0
672 0 0 0 0 0 0
673 0 0 0 0 0 0
674 0 0 0 0 0 0
675 0 0 0 0 0 0
676 0 0 0 0 0 0
677 0 0 0 0 0 0
678 0 0 0 0 0 0
679 0 0 0 0 0 0
680 0 0 0 0 0 0
681 0 0 0 0 0 0
682 0 0 0 0 0 0
683 0 0 0 0 0 0
684 0 0 0 0 0 0
685 0 0 0 0 0 0
686 0 0 0 0 0 0
687 0 0 0 0 0 0
688 0 0 0 0 0 0
689 0 0 0 0 0 0
690 0 0 0 0 0 0
691 0 0 0 0 0 0
692 0 0 0 0 0 0
693 0 0 0 0 0 0
694 0 0 0 0 0 0
695 0 0 0 0 0 0
696 0 0 0 0 0 0
697 0 0 0 0 0 0
698 0 0 0 0 0 0
699 0 0 0 0 0 0
700 0 0 0 0 0 0
701 0 0 0 0 0 0
702 0 0 0 0 0 0
703 0 0 0 0 0 0
704 0 0 0 0 0 0
705 0 0 0 0 0 0
706 0 0 0 0 0 0
707 0 0 0 0 0 0
708 0 0 0 0 0 0
709 0 0 0 0 0 0
710 0 0 0 0 0 0
711 0 0 0 0 0 0
712 0 0 0 0 0 0
713 0 0 0 0 0 0
714 0 0 0 0 0 0
715 0 0 0 0 0 0
716 0 0 0 0 0 0
717 0 0 0 0 0 0
718 0 0 0 0 0 0
719 0 0 0 0 0 0
720 0 0 0 0 0 0
721 0 0 0 0 0 0
722 0 0 0 0 0 0
723 0 0 0 0 0 0
724 0 0 0 0 0 0
725 0 0 0 0 0 0
726 0 0 0 0 0 0
727 0 0 0 0 0 0
728 0 0 0 0 0 0
729 0 0 0 0 0 0
730 0 0 0 0 0 0
731 0 0 0 0 0 0
732 0 0 0 0 0 0
733 0 0 0 0 0 0
734 0 0 0 0 0 0
735 0 0 0 0 0 0
736 0 0 0 0 0 0
737 0 0 0 0 0 0
738 0 0 0 0 0 0
739 0 0 0 0 0 0
740 0 0 0 0 0 0
741 0 0 0 0 0 0
742 0 0 0 0 0 0
743 0 0 0 0 0 0
744 0 0 0 0 0 0
745 0 0 0 0 0 0
746 0 0 0 0 0 0
747 0 0 0 0 0 0
748 0 0 0 0 0 0
749 0 0 0 0 0 0
750 0 0 0 0 0 0
751 0 0 0 0 0 0
752 0 0 0 0 0 0
753 0 0 0 0 0 0
754 0 0 0 0 0 0
755 0 0 0 0 0 0
756 0 0 0 0 0 0
757 0 0 0 0 0 0
758 0 0 0 0 0 0
759 0 0 0 0 0 0
760 0 0 0 0 0 0
761 0 0 0 0 0 0
762 0 0 0 0 0 0
763 0 0 0 0 0 0
764 0 0 0 0 0 0
765 0 0 0 0 0 0
766 0 0 0 0 0 0
767 0 0 0 0 0 0
768 0 0 0 0 0 0
769 0 0 0 0 0 0
770 0 0 0 0 0 0
771 0 0 0 0 0 0
772 0 0 0 0 0 0
773 0 0 0 0 0 0
774 0 0 0 0 0 0
775 0 0 0 0 0 0
776 0 0 0 0 0 0
777 0 0 0 0 0 0
778 0 0 0 0 0 0
779 0 0 0 0 0 0
780 0 0 0 0 0 0
781 0 0 0 0 0 0
782 0 0 0 0 0 0
783 0 0 0 0 0 0
784 0 0 0 0 0 0
785 0 0 0 0 0 0
786 0 0 0 0 0 0
787 0 0 0 0 0 0
788 0 0 0 0 0 0
789 0 0 0 0 0 0
790 0 0 0 0 0 0
791 0 0 0 0 0 0
792 0 0 0 0 0 0
793 0 0 0 0 0 0
794 0 0 0 0 0 0
795 0 0 0 0 0 0
796 0 0 0 0 0 0
797 0 0 0 0 0 0
798 0 0 0 0 0 0
799 0 0 0 0 0 0
800 0 0 0 0 0 0
801 0 0 0 0 0 0
802 0 0 0 0 0 0
803 0 0 0 0 0 0
804 0 0 0 0 0 0
805 0 0 0 0 0 0
806 0 0 0 0 0 0
807 0 0 0 0 0 0
808 0 0 0 0 0 0
809 0 0 0 0 0 0
810 0 0 0 0 0 0
811 0 0 0 0 0 0
812 0 0 0 0 0 0
813 0 0 0 0 0 0
814 0 0 0 0 0 0
815 0 0 0 0 0 0
816 0 0 0 0 0 0
817 0 0 0 0 0 0
818 0 0 0 0 0 0
819 0 0 0 0 0 0
820 0 0 0 0 0 0
821 0 0 0 0 0 0
822 0 0 0 0 0 0
823 0 0 0 0 0 0
824 0 0 0 0 0 0
825 0 0 0 0 0 0
826 0 0 0 0 0 0
827 0 0 0 0 0 0
828 0 0 0 0 0 0
829 0 0 0 0 0 0
830 0 0 0 0 0 0
831 0 0 0 0 0 0
832 0 0 0 0 0 0
833 0 0 0 0 0 0
834 0 0 0 0 0 0
835 0 0 0 0 0 0
836 0 0 0 0 0 0
837 0 0 0 0 0 0
838 0 0 0 0 0 0
839 0 0 0 0 0 0
840 0 0 0 0 0 0
841 0 0 0 0 0 0
842 0 0 0 0 0 0
843 0 0 0 0 0 0
844 0 0 0 0 0 0
845 0 0 0 0 0 0
846 0 0 0 0 0 0
847 0 0 0 0 0 0
848 0 0 0 0 0 0
849 0 0 0 0 0 0
850 0 0 0 0 0 0
851 0 0 0 0 0 0
852 0 0 0 0 0 0
853 0 0 0 0 0 0
854 0 0 0 0 0 0
855 0 0 0 0 0 0
856 0 0 0 0 0 0
857 0 0 0 0 0 0
858 0 0 0 0 0 0
859 0 0 0 0 0 0
860 0 0 0 0 0 0
861 0 0 0 0 0 0
862 0 0 0 0 0 0
863 0 0 0 0 0 0
864 0 0 0 0 0 0
865 0 0 0 0 0 0
866 0 0 0 0 0 0
867 0 0 0 0 0 0
868 0 0 0 0 0 0
869 0 0 0 0 0 0
870 0 0 0 0 0 0
871 0 0 0 0 0 0
872 0 0 0 0 0 0
873 0 0 0 0 0 0
874 0 0 0 0 0 0
875 0 0 0 0 0 0
876 0 0 0 0 0 0
877 0 0 0 0 0 0
878 0 0 0 0 0 0
879 0 0 0 0 0 0
880 0 0 0 0 0 0
881 0 0 0 0 0 0
882 0 0 0 0 0 0
883 0 0 0 0 0 0
884 0 0 0 0 0 0
885 0 0 0 0 0 0
886 0 0 0 0 0 0
887 0 0 0 0 0 0
888 0 0 0 0 0 0
889 0 0 0 0 0 0
890 0 0 0 0 0 0
891 0 0 0 0 0 0
892 0 0 0 0 0 0
893 0 0 0 0 0 0
894 0 0 0 0 0 0
895 0 0 0 0 0 0
896 0 0 0 0 0 0
897 0 0 0 0 0 0
898 0 0 0 0 0 0
899 0 0 0 0 0 0
900 0 0 0 0 0 0
901 0 0 0 0 0 0
902 0 0 0 0 0 0
903 0 0 0 0 0 0
904 0 0 0 0 0 0
905 0 0 0 0 0 0
906 0 0 0 0 0 0
907 0 0 0 0 0 0
908 0 0 0 0 0 0
909 0 0 0 0 0 0
910 0 0 0 0 0 0
911 0 0 0 0 0 0
912 0 0 0 0 0 0
913 0 0 0 0 0 0
914 0 0 0 0 0 0
915 0 0 0 0 0 0
916 0 0 0 0 0 0
917 0 0 0 0 0 0
918 0 0 0 0 0 0
919 0 0 0 0 0 0
920 0 0 0 0 0 0
921 0 0 0 0 0 0
922 0 0 0 0 0 0
923 0 0 0 0 0 0
924 0 0 0 0 0 0
925 0 0 0 0 0 0
926 0 0 0 0 0 0
927 0 0 0 0 0 0
928 0 0 0 0 0 0
929 0 0 0 0 0 0
930 0 0 0 0 0 0
931 0 0 0 0 0 0
932 0 0 0 0 0 0
933 0 0 0 0 0 0
934 0 0 0 0 0 0
935 0 0 0 0 0 0
936 0 0 0 0 0 0
937 0 0 0 0 0 0
938 0 0 0 0 0 0
939 0 0 0 0 0 0
940 0 0 0 0 0 0
941 0 0 0 0 0 0
942 0 0 0 0 0 0
943 0 0 0 0 0 0
944 0 0 0 0 0 0
945 0 0 0 0 0 0
946 0 0 0 0 0 0
947 0 0 0 0 0 0
948 0 0 0 0 0 0
949 0 0 0 0 0 0
950 0 0 0 0 0 0
951 0 0 0 0 0 0
952 0 0 0 0 0 0
953 0 0 0 0 0 0
954 0 0 0 0 0 0
955 0 0 0 0 0 0
956 0 0 0 0 0 0
957 0 0 0 0 0 0
958 0 0 0 0 0 0
959 0 0 0 0 0 0
960 0 0 0 0 0 0
961 0 0 0 0 0 0
962 0 0 0 0 0 0
963 0 0 0 0 0 0
964 0 0 0 0 0 0
965 0 0 0 0 0 0
966 0 0 0 0 0 0
967 0 0 0 0 0 0
968 0 0 0 0 0 0
969 0 0 0 0 0 0
970 0 0 0 0 0 0
971 0 0 0 0 0 0
972 0 0 0 0 0 0
973 0 0 0 0 0 0
974 0 0 0 0 0 0
975 0 0 0 0 0 0
976 0 0 0 0 0 0
977 0 0 0 0 0 0
978 0 0 0 0 0 0
979 0 0 0 0 0 0
980 0 0 0 0 0 0
981 0 0 0 0 0 0
982 0 0 0 0 0 0
983 0 0 0 0 0 0
984 0 0 0 0 0 0
985 0 0 0 0 0 0
986 0 0 0 0 0 0
987 0 0 0 0 0 0
988 0 0 0 0 0 0
989 0 0 0 0 0 0
990 0 0 0 0 0 0
991 0 0 0 0 0 0
992 0 0 0 0 0 0
993 0 0 0 0 0 0
994 0 0 0 0 0 0
995 0 0 0 0 0 0
996 0 0 0 0 0 0
997 0 0 0 0 0 0
998 0 0 0 0 0 0
999 0 0 0 0 0 0
1000 0 0 0 0 0 0
