ITEM: TIMESTEP
200
ITEM: NUMBER OF ATOMS
1
ITEM: BOX BOUNDS pp pp pp
0.0000000000000000e+00 1.0000000000000000e-04
0.0000000000000000e+00 1.0000000000000000e-04
0.0000000000000000e+00 1.0000000000000000e-04
ITEM: ATOMS id type diameter radius mass x y z xu yu zu vx vy vz omegax omegay omegaz fx fy fz proc ix iy iz
1 1 2.4294173717160194e-06 1.2147086858580097e-06 7.5076673243785343e-15 5.0200000000000441e-05 4.9600000000000481e-05 5.0599999999999963e-05 5.0200000000000441e-05 4.9600000000000481e-05 5.0599999999999963e-05 0.001 -0.002 0.0030000000000000001 0 0 0 0 0 0 0 0 0 0
