LAMMPS (2 Sep 2026)
Reading data file ...
  orthogonal box = (0 0 0) to (0.0001 0.0001 0.0001)
  1 by 1 by 1 MPI processor grid
  reading atoms ...
  1 atoms
  reading velocities ...
  1 velocities
  read_data CPU = 0.001 seconds
Generated 0 of 0 mixed pair_coeff terms from geometric mixing rule
Neighbor list info ...
  update: every = 1 steps, delay = 0 steps, check = no
  max neighbors/atom: 2000, page size: 100000
  master list distance cutoff = 7e-06
  ghost atom cutoff = 7e-06
  binsize = 3.5e-06, bins = 29 29 29
  1 neighbor lists, perpetual/occasional/extra = 1 0 0
  (1) pair zero, perpetual
      attributes: half, newton off
      pair build: half/bin/atomonly/newtoff
      stencil: full/bin/3d
      bin: standard
Setting up Verlet run ...
  Unit style    : si
  Current step  : 0
  Time step     : 1e-06
Per MPI rank memory allocation (min/avg/max) = 3.956 | 3.956 | 3.956 Mbytes
   Step        Atoms         Time          KinEng    
         0           1  0 0
Loop time of 8.52e-07 on 1 procs for 0 steps with 1 atoms

0.0% CPU use with 1 MPI tasks x no OpenMP threads

MPI task timing breakdown:
Section |  min time  |  avg time  |  max time  |%varavg| %total
---------------------------------------------------------------
Pair    | 0          | 0          | 0          |   0.0 |  0.00
Neigh   | 0          | 0          | 0          |   0.0 |  0.00
Comm    | 0          | 0          | 0          |   0.0 |  0.00
Output  | 0          | 0          | 0          |   0.0 |  0.00
Modify  | 0          | 0          | 0          |   0.0 |  0.00
Other   |            | 8.52e-07   |            |       |100.00

Nlocal:              1 ave           1 max           1 min
Histogram: 1 0 0 0 0 0 0 0 0 0
Nghost:              0 ave           0 max           0 min
Histogram: 1 0 0 0 0 0 0 0 0 0
Neighs:              0 ave           0 max           0 min
Histogram: 1 0 0 0 0 0 0 0 0 0

Total # of neighbors = 0
Ave neighs/atom = 0
Neighbor list builds = 0
Dangerous builds not checked
Generated 0 of 0 mixed pair_coeff terms from geometric mixing rule
Setting up Verlet run ...
  Unit style    : si
  Current step  : 0
  Time step     : 1e-06
Per MPI rank memory allocation (min/avg/max) = 3.956 | 3.956 | 3.956 Mbytes
   Step        Atoms         Time          KinEng    
         0           1  0 0
        20           1  1.9999999999999998e-05 0
        40           1  3.9999999999999996e-05 0
        60           1  5.9999999999999995e-05 0
        80           1  7.9999999999999993e-05 0
       100           1  9.9999999999999991e-05 0
       120           1  0.00011999999999999999 0
       140           1  0.00013999999999999999 0
       160           1  0.00015999999999999999 0
       180           1  0.00017999999999999998 0
       200           1  0.00019999999999999998 0
Loop time of 0.00207382 on 1 procs for 200 steps with 1 atoms

100.0% CPU use with 1 MPI tasks x no OpenMP threads

MPI task timing breakdown:
Section |  min time  |  avg time  |  max time  |%varavg| %total
---------------------------------------------------------------
Pair    | 5.174e-06  | 5.174e-06  | 5.174e-06  |   0.0 |  0.25
Neigh   | 0.001975   | 0.001975   | 0.001975   |   0.0 | 95.23
Comm    | 2.9018e-05 | 2.9018e-05 | 2.9018e-05 |   0.0 |  1.40
Output  | 2.5419e-05 | 2.5419e-05 | 2.5419e-05 |   0.0 |  1.23
Modify  | 1.9394e-05 | 1.9394e-05 | 1.9394e-05 |   0.0 |  0.94
Other   |            | 1.982e-05  |            |       |  0.96

Nlocal:              1 ave           1 max           1 min
Histogram: 1 0 0 0 0 0 0 0 0 0
Nghost:              0 ave           0 max           0 min
Histogram: 1 0 0 0 0 0 0 0 0 0
Neighs:              0 ave           0 max           0 min
Histogram: 1 0 0 0 0 0 0 0 0 0

Total # of neighbors = 0
Ave neighs/atom = 0
Neighbor list builds = 200
Dangerous builds not checked
ENGINE_CASE_COMPLETED
Total wall time: 0:00:00
