ITEM: TIMESTEP
0
ITEM: NUMBER OF ATOMS
8
ITEM: BOX BOUNDS pp pp pp
8.0090314919576298e-05 1.7844071187841779e-04
5.5701359566515553e-05 1.5485135324859965e-04
1.1143341591952393e-04 1.6720528736569626e-04
ITEM: ATOMS id diameter xu yu zu vx vy vz
1 1.3019648173758141e-06 0.00015635185239884058 0.00013556108230037159 0.00012892459424045609 0.00011462306276991573 4.9808243844525689e-05 1.979060346805032e-05
2 1.784397450334973e-06 0.00015395306222911273 0.00013416178803469703 0.00012872469505964546 8.2795922880140807e-05 5.888162017318974e-05 6.7665893533474406e-06
3 1.184279187338301e-06 0.00014195911138047352 0.00012596592162146024 0.00012352731635856845 0.00013645820318845985 4.2081158546168082e-05 8.9538099635889311e-05
4 1.1067794561365052e-06 0.00010337856948401742 5.8000200145838068e-05 0.00013792005737693551 -7.1863153927493269e-05 0.00011107072580423993 -0.00031474882414306814
5 2.4391238072427157e-06 0.0001511544736977636 0.00013176299786496918 0.00012852479587883479 5.7561793914808345e-05 5.0548507719510095e-05 4.315771517993801e-06
6 1.8390512128787445e-06 0.00014335840564614811 0.00012636571998308154 0.00012452681226262171 8.6569816867279592e-05 3.0081208640243214e-05 6.63599898462202e-05
7 2.9611208650371429e-06 0.0001459570949966866 0.00012756511506794546 0.00012692560243234957 5.0273248761576481e-05 3.1135394306247049e-05 3.9024740149262793e-05
8 1.5300138469969057e-06 0.0001527536671442488 0.00013296239294983311 0.00012872469505964546 6.7894580997901344e-05 5.6366796903855793e-05 4.3885231324812342e-06
