LAMMPS (2 Sep 2026)
Reading data file ...
  orthogonal box = (8.0090315e-05 5.570136e-05 0.00011143342) to (0.00017844071 0.00015485135 0.00016720529)
  1 by 1 by 1 MPI processor grid
  reading atoms ...
  1 atoms
  reading velocities ...
  1 velocities
  read_data CPU = 0.001 seconds
Generated 0 of 0 mixed pair_coeff terms from geometric mixing rule
Neighbor list info ...
  update: every = 1 steps, delay = 0 steps, check = no
  max neighbors/atom: 2000, page size: 100000
  master list distance cutoff = 7e-06
  ghost atom cutoff = 7e-06
  binsize = 3.5e-06, bins = 29 29 16
  1 neighbor lists, perpetual/occasional/extra = 1 0 0
  (1) pair zero, perpetual
      attributes: half, newton off
      pair build: half/bin/atomonly/newtoff
      stencil: full/bin/3d
      bin: standard
Setting up Verlet run ...
  Unit style    : si
  Current step  : 0
  Time step     : 2.8958747102893354e-05
Per MPI rank memory allocation (min/avg/max) = 3.899 | 3.899 | 3.899 Mbytes
   Step        Atoms         Time     
         0           1  0
Loop time of 8.31e-07 on 1 procs for 0 steps with 1 atoms

120.3% CPU use with 1 MPI tasks x no OpenMP threads

MPI task timing breakdown:
Section |  min time  |  avg time  |  max time  |%varavg| %total
---------------------------------------------------------------
Pair    | 0          | 0          | 0          |   0.0 |  0.00
Neigh   | 0          | 0          | 0          |   0.0 |  0.00
Comm    | 0          | 0          | 0          |   0.0 |  0.00
Output  | 0          | 0          | 0          |   0.0 |  0.00
Modify  | 0          | 0          | 0          |   0.0 |  0.00
Other   |            | 8.31e-07   |            |       |100.00

Nlocal:              1 ave           1 max           1 min
Histogram: 1 0 0 0 0 0 0 0 0 0
Nghost:              0 ave           0 max           0 min
Histogram: 1 0 0 0 0 0 0 0 0 0
Neighs:              0 ave           0 max           0 min
Histogram: 1 0 0 0 0 0 0 0 0 0

Total # of neighbors = 0
Ave neighs/atom = 0
Neighbor list builds = 0
Dangerous builds not checked
Generated 0 of 0 mixed pair_coeff terms from geometric mixing rule
Setting up Verlet run ...
  Unit style    : si
  Current step  : 0
  Time step     : 2.8958747102893354e-05
Per MPI rank memory allocation (min/avg/max) = 3.899 | 3.899 | 3.899 Mbytes
   Step        Atoms         Time     
         0           1  0
       602           1  0.017433165755941799
      1204           1  0.034866331511883598
      1806           1  0.052299497267825394
      2408           1  0.069732663023767197
      3010           1  0.087165828779708993
      3612           1  0.10459899453565079
      4214           1  0.1220321602915926
      4816           1  0.13946532604753439
      5418           1  0.1568984918034762
      6020           1  0.17433165755941799
Loop time of 0.584 on 1 procs for 6020 steps with 1 atoms

100.0% CPU use with 1 MPI tasks x no OpenMP threads

MPI task timing breakdown:
Section |  min time  |  avg time  |  max time  |%varavg| %total
---------------------------------------------------------------
Pair    | 0.00016462 | 0.00016462 | 0.00016462 |   0.0 |  0.03
Neigh   | 0.03923    | 0.03923    | 0.03923    |   0.0 |  6.72
Comm    | 0.00097835 | 0.00097835 | 0.00097835 |   0.0 |  0.17
Output  | 9.1367e-05 | 9.1367e-05 | 9.1367e-05 |   0.0 |  0.02
Modify  | 0.54292    | 0.54292    | 0.54292    |   0.0 | 92.97
Other   |            | 0.0006121  |            |       |  0.10

Nlocal:              1 ave           1 max           1 min
Histogram: 1 0 0 0 0 0 0 0 0 0
Nghost:              0 ave           0 max           0 min
Histogram: 1 0 0 0 0 0 0 0 0 0
Neighs:              0 ave           0 max           0 min
Histogram: 1 0 0 0 0 0 0 0 0 0

Total # of neighbors = 0
Ave neighs/atom = 0
Neighbor list builds = 6020
Dangerous builds not checked
PASSIVE_CASE_COMPLETED
Total wall time: 0:00:00
