ITEM: TIMESTEP
1000
ITEM: NUMBER OF ATOMS
1000
ITEM: BOX BOUNDS pp pp pp
0.0000000000000000e+00 7.9999999999999993e-05
0.0000000000000000e+00 7.9999999999999993e-05
0.0000000000000000e+00 7.9999999999999993e-05
ITEM: ATOMS id type diameter radius mass x y z xu yu zu vx vy vz omegax omegay omegaz fx fy fz proc ix iy iz
1 1 2.4294173717160194e-06 1.2147086858580097e-06 7.5076673243785343e-15 4.3999999999999619e-05 1.3999999999999905e-05 6.3999999999997463e-05 4.3999999999999619e-05 1.3999999999999905e-05 -1.600000000000253e-05 0.0040000000000000001 0.001 -0.002 0 0 0 0 0 0 0 0 0 -1
2 1 2.0919482960331784e-06 1.0459741480165892e-06 4.7934859814790421e-15 4.3999999999999619e-05 1.3999999999999905e-05 7.1999999999998809e-05 4.3999999999999619e-05 1.3999999999999905e-05 -8.0000000000011838e-06 0.0040000000000000001 0.001 -0.002 0 0 0 0 0 0 0 0 0 -1
3 1 1.4684370464205234e-06 7.342185232102617e-07 1.6579240059781465e-15 4.3999999999999619e-05 1.3999999999999905e-05 1.6970437447137916e-19 4.3999999999999619e-05 1.3999999999999905e-05 1.6970437447137916e-19 0.0040000000000000001 0.001 -0.002 0 0 0 0 0 0 0 0 0 0
4 1 2.203626863156132e-06 1.101813431578066e-06 5.6028990314680636e-15 4.3999999999999619e-05 1.3999999999999905e-05 8.0000000000001911e-06 4.3999999999999619e-05 1.3999999999999905e-05 8.0000000000001911e-06 0.0040000000000000001 0.001 -0.002 0 0 0 0 0 0 0 0 0 0
5 1 1.5539476822357882e-06 7.7697384111789408e-07 1.9647522799926409e-15 4.3999999999999619e-05 1.3999999999999905e-05 1.5999999999999264e-05 4.3999999999999619e-05 1.3999999999999905e-05 1.5999999999999264e-05 0.0040000000000000001 0.001 -0.002 0 0 0 0 0 0 0 0 0 0
6 1 2.1195153229157058e-06 1.0597576614578529e-06 4.9854952197772228e-15 4.3999999999999619e-05 1.3999999999999905e-05 2.3999999999997907e-05 4.3999999999999619e-05 1.3999999999999905e-05 2.3999999999997907e-05 0.0040000000000000001 0.001 -0.002 0 0 0 0 0 0 0 0 0 0
7 1 1.7974989281121049e-06 8.9874946405605244e-07 3.0409168322209435e-15 4.3999999999999619e-05 1.3999999999999905e-05 3.19999999999968e-05 4.3999999999999619e-05 1.3999999999999905e-05 3.19999999999968e-05 0.0040000000000000001 0.001 -0.002 0 0 0 0 0 0 0 0 0 0
8 1 2.7885230891174363e-06 1.3942615445587182e-06 1.1353280209593293e-14 4.3999999999999619e-05 1.3999999999999905e-05 3.9999999999996798e-05 4.3999999999999619e-05 1.3999999999999905e-05 3.9999999999996798e-05 0.0040000000000000001 0.001 -0.002 0 0 0 0 0 0 0 0 0 0
9 1 2.2760224327906637e-06 1.1380112163953319e-06 6.1734542912477833e-15 4.3999999999999619e-05 1.3999999999999905e-05 4.7999999999996803e-05 4.3999999999999619e-05 1.3999999999999905e-05 4.7999999999996803e-05 0.0040000000000000001 0.001 -0.002 0 0 0 0 0 0 0 0 0 0
10 1 1.5889468195683916e-06 7.9447340978419578e-07 2.1005194557480553e-15 4.3999999999999619e-05 1.3999999999999905e-05 5.5999999999996794e-05 4.3999999999999619e-05 1.3999999999999905e-05 5.5999999999996794e-05 0.0040000000000000001 0.001 -0.002 0 0 0 0 0 0 0 0 0 0
11 1 1.3063311737986631e-06 6.5316558689933156e-07 1.1672355192050337e-15 4.3999999999999619e-05 2.2000000000001046e-05 6.3999999999997463e-05 4.3999999999999619e-05 2.2000000000001046e-05 -1.600000000000253e-05 0.0040000000000000001 0.001 -0.002 0 0 0 0 0 0 0 0 0 -1
12 1 2.4830031147139542e-06 1.2415015573569771e-06 8.0154962511219149e-15 4.3999999999999619e-05 2.2000000000001046e-05 7.1999999999998809e-05 4.3999999999999619e-05 2.2000000000001046e-05 -8.0000000000011838e-06 0.0040000000000000001 0.001 -0.002 0 0 0 0 0 0 0 0 0 -1
13 1 1.8421809291326118e-06 9.2109046456630589e-07 3.2733727929687408e-15 4.3999999999999619e-05 2.2000000000001046e-05 1.6970437447137916e-19 4.3999999999999619e-05 2.2000000000001046e-05 1.6970437447137916e-19 0.0040000000000000001 0.001 -0.002 0 0 0 0 0 0 0 0 0 0
14 1 3.0150086589025151e-06 1.5075043294512575e-06 1.4350410139827118e-14 4.3999999999999619e-05 2.2000000000001046e-05 8.0000000000001911e-06 4.3999999999999619e-05 2.2000000000001046e-05 8.0000000000001911e-06 0.0040000000000000001 0.001 -0.002 0 0 0 0 0 0 0 0 0 0
15 1 3.2170232318132096e-06 1.6085116159066048e-06 1.7432561814564976e-14 4.3999999999999619e-05 2.2000000000001046e-05 1.5999999999999264e-05 4.3999999999999619e-05 2.2000000000001046e-05 1.5999999999999264e-05 0.0040000000000000001 0.001 -0.002 0 0 0 0 0 0 0 0 0 0
16 1 1.5682114487912273e-06 7.8410572439561367e-07 2.0193541100175427e-15 4.3999999999999619e-05 2.2000000000001046e-05 2.3999999999997907e-05 4.3999999999999619e-05 2.2000000000001046e-05 2.3999999999997907e-05 0.0040000000000000001 0.001 -0.002 0 0 0 0 0 0 0 0 0 0
17 1 1.8500492028859351e-06 9.2502460144296755e-07 3.3154956217787949e-15 4.3999999999999619e-05 2.2000000000001046e-05 3.19999999999968e-05 4.3999999999999619e-05 2.2000000000001046e-05 3.19999999999968e-05 0.0040000000000000001 0.001 -0.002 0 0 0 0 0 0 0 0 0 0
18 1 1.9247255518108104e-06 9.6236277590540522e-07 3.7334045968193123e-15 4.3999999999999619e-05 2.2000000000001046e-05 3.9999999999996798e-05 4.3999999999999619e-05 2.2000000000001046e-05 3.9999999999996798e-05 0.0040000000000000001 0.001 -0.002 0 0 0 0 0 0 0 0 0 0
19 1 2.1401249194732724e-06 1.0700624597366362e-06 5.1323467943776949e-15 4.3999999999999619e-05 2.2000000000001046e-05 4.7999999999996803e-05 4.3999999999999619e-05 2.2000000000001046e-05 4.7999999999996803e-05 0.0040000000000000001 0.001 -0.002 0 0 0 0 0 0 0 0 0 0
20 1 1.2267829678051698e-06 6.1339148390258491e-07 9.667225198486945e-16 4.3999999999999619e-05 2.2000000000001046e-05 5.5999999999996794e-05 4.3999999999999619e-05 2.2000000000001046e-05 5.5999999999996794e-05 0.0040000000000000001 0.001 -0.002 0 0 0 0 0 0 0 0 0 0
21 1 1.0805533032259198e-06 5.4027665161295988e-07 6.6059792961059578e-16 4.3999999999999619e-05 3.0000000000001597e-05 6.3999999999997463e-05 4.3999999999999619e-05 3.0000000000001597e-05 -1.600000000000253e-05 0.0040000000000000001 0.001 -0.002 0 0 0 0 0 0 0 0 0 -1
22 1 1.3952925731669071e-06 6.9764628658345353e-07 1.4223106765106086e-15 4.3999999999999619e-05 3.0000000000001597e-05 7.1999999999998809e-05 4.3999999999999619e-05 3.0000000000001597e-05 -8.0000000000011838e-06 0.0040000000000000001 0.001 -0.002 0 0 0 0 0 0 0 0 0 -1
23 1 1.7668519870383837e-06 8.8342599351919185e-07 2.8880129086009213e-15 4.3999999999999619e-05 3.0000000000001597e-05 1.6970437447137916e-19 4.3999999999999619e-05 3.0000000000001597e-05 1.6970437447137916e-19 0.0040000000000000001 0.001 -0.002 0 0 0 0 0 0 0 0 0 0
24 1 1.9000665922622412e-06 9.5003329613112058e-07 3.5917416314639239e-15 4.3999999999999619e-05 3.0000000000001597e-05 8.0000000000001911e-06 4.3999999999999619e-05 3.0000000000001597e-05 8.0000000000001911e-06 0.0040000000000000001 0.001 -0.002 0 0 0 0 0 0 0 0 0 0
25 1 1.8035079156710989e-06 9.0175395783554945e-07 3.0715159909994467e-15 4.3999999999999619e-05 3.0000000000001597e-05 1.5999999999999264e-05 4.3999999999999619e-05 3.0000000000001597e-05 1.5999999999999264e-05 0.0040000000000000001 0.001 -0.002 0 0 0 0 0 0 0 0 0 0
26 1 1.399104617678304e-06 6.9955230883915199e-07 1.4340001349236367e-15 4.3999999999999619e-05 3.0000000000001597e-05 2.3999999999997907e-05 4.3999999999999619e-05 3.0000000000001597e-05 2.3999999999997907e-05 0.0040000000000000001 0.001 -0.002 0 0 0 0 0 0 0 0 0 0
27 1 2.6441978403003492e-06 1.3220989201501746e-06 9.680113753324993e-15 4.3999999999999619e-05 3.0000000000001597e-05 3.19999999999968e-05 4.3999999999999619e-05 3.0000000000001597e-05 3.19999999999968e-05 0.0040000000000000001 0.001 -0.002 0 0 0 0 0 0 0 0 0 0
28 1 3.4424699819082035e-06 1.7212349909541017e-06 2.1360386570801364e-14 4.3999999999999619e-05 3.0000000000001597e-05 3.9999999999996798e-05 4.3999999999999619e-05 3.0000000000001597e-05 3.9999999999996798e-05 0.0040000000000000001 0.001 -0.002 0 0 0 0 0 0 0 0 0 0
29 1 2.5370903038835501e-06 1.2685451519417751e-06 8.5507931166315826e-15 4.3999999999999619e-05 3.0000000000001597e-05 4.7999999999996803e-05 4.3999999999999619e-05 3.0000000000001597e-05 4.7999999999996803e-05 0.0040000000000000001 0.001 -0.002 0 0 0 0 0 0 0 0 0 0
30 1 2.1689414285841368e-06 1.0844707142920684e-06 5.3424700351253802e-15 4.3999999999999619e-05 3.0000000000001597e-05 5.5999999999996794e-05 4.3999999999999619e-05 3.0000000000001597e-05 5.5999999999996794e-05 0.0040000000000000001 0.001 -0.002 0 0 0 0 0 0 0 0 0 0
31 1 3.1990322165171244e-06 1.5995161082585622e-06 1.7141722633042072e-14 4.3999999999999619e-05 3.8000000000001595e-05 6.3999999999997463e-05 4.3999999999999619e-05 3.8000000000001595e-05 -1.600000000000253e-05 0.0040000000000000001 0.001 -0.002 0 0 0 0 0 0 0 0 0 -1
32 1 2.1680169152339152e-06 1.0840084576169576e-06 5.3356412479034963e-15 4.3999999999999619e-05 3.8000000000001595e-05 7.1999999999998809e-05 4.3999999999999619e-05 3.8000000000001595e-05 -8.0000000000011838e-06 0.0040000000000000001 0.001 -0.002 0 0 0 0 0 0 0 0 0 -1
33 1 1.7351039492362188e-06 8.675519746181094e-07 2.7351120138715601e-15 4.3999999999999619e-05 3.8000000000001595e-05 1.6970437447137916e-19 4.3999999999999619e-05 3.8000000000001595e-05 1.6970437447137916e-19 0.0040000000000000001 0.001 -0.002 0 0 0 0 0 0 0 0 0 0
34 1 2.3123191298183369e-06 1.1561595649091684e-06 6.4735415324495697e-15 4.3999999999999619e-05 3.8000000000001595e-05 8.0000000000001911e-06 4.3999999999999619e-05 3.8000000000001595e-05 8.0000000000001911e-06 0.0040000000000000001 0.001 -0.002 0 0 0 0 0 0 0 0 0 0
35 1 1.6292822883727116e-06 8.1464114418635579e-07 2.2645798126175811e-15 4.3999999999999619e-05 3.8000000000001595e-05 1.5999999999999264e-05 4.3999999999999619e-05 3.8000000000001595e-05 1.5999999999999264e-05 0.0040000000000000001 0.001 -0.002 0 0 0 0 0 0 0 0 0 0
36 1 2.5615826687294038e-06 1.2807913343647019e-06 8.8008324089500051e-15 4.3999999999999619e-05 3.8000000000001595e-05 2.3999999999997907e-05 4.3999999999999619e-05 3.8000000000001595e-05 2.3999999999997907e-05 0.0040000000000000001 0.001 -0.002 0 0 0 0 0 0 0 0 0 0
37 1 1.9396088390321771e-06 9.6980441951608855e-07 3.8206837042082902e-15 4.3999999999999619e-05 3.8000000000001595e-05 3.19999999999968e-05 4.3999999999999619e-05 3.8000000000001595e-05 3.19999999999968e-05 0.0040000000000000001 0.001 -0.002 0 0 0 0 0 0 0 0 0 0
38 1 1.8086270967782272e-06 9.0431354838911358e-07 3.0977454069549787e-15 4.3999999999999619e-05 3.8000000000001595e-05 3.9999999999996798e-05 4.3999999999999619e-05 3.8000000000001595e-05 3.9999999999996798e-05 0.0040000000000000001 0.001 -0.002 0 0 0 0 0 0 0 0 0 0
39 1 1.2731460622094022e-06 6.3657303110470108e-07 1.0805212583653938e-15 4.3999999999999619e-05 3.8000000000001595e-05 4.7999999999996803e-05 4.3999999999999619e-05 3.8000000000001595e-05 4.7999999999996803e-05 0.0040000000000000001 0.001 -0.002 0 0 0 0 0 0 0 0 0 0
40 1 1.6820308742487284e-06 8.410154371243642e-07 2.4917273075711798e-15 4.3999999999999619e-05 3.8000000000001595e-05 5.5999999999996794e-05 4.3999999999999619e-05 3.8000000000001595e-05 5.5999999999996794e-05 0.0040000000000000001 0.001 -0.002 0 0 0 0 0 0 0 0 0 0
41 1 2.6873341942780981e-06 1.3436670971390491e-06 1.0161636538633164e-14 4.3999999999999619e-05 4.6000000000001599e-05 6.3999999999997463e-05 4.3999999999999619e-05 4.6000000000001599e-05 -1.600000000000253e-05 0.0040000000000000001 0.001 -0.002 0 0 0 0 0 0 0 0 0 -1
42 1 1.3045869975382891e-06 6.5229349876914457e-07 1.1625663797746825e-15 4.3999999999999619e-05 4.6000000000001599e-05 7.1999999999998809e-05 4.3999999999999619e-05 4.6000000000001599e-05 -8.0000000000011838e-06 0.0040000000000000001 0.001 -0.002 0 0 0 0 0 0 0 0 0 -1
43 1 9.7977244496300988e-07 4.8988622248150494e-07 4.9246377061921068e-16 4.3999999999999619e-05 4.6000000000001599e-05 1.6970437447137916e-19 4.3999999999999619e-05 4.6000000000001599e-05 1.6970437447137916e-19 0.0040000000000000001 0.001 -0.002 0 0 0 0 0 0 0 0 0 0
44 1 1.3993384740919561e-06 6.9966923704597806e-07 1.4347193224249471e-15 4.3999999999999619e-05 4.6000000000001599e-05 8.0000000000001911e-06 4.3999999999999619e-05 4.6000000000001599e-05 8.0000000000001911e-06 0.0040000000000000001 0.001 -0.002 0 0 0 0 0 0 0 0 0 0
45 1 1.1277971632549906e-06 5.638985816274953e-07 7.5108937065998998e-16 4.3999999999999619e-05 4.6000000000001599e-05 1.5999999999999264e-05 4.3999999999999619e-05 4.6000000000001599e-05 1.5999999999999264e-05 0.0040000000000000001 0.001 -0.002 0 0 0 0 0 0 0 0 0 0
46 1 1.8184972588508851e-06 9.0924862942544254e-07 3.1487383564582278e-15 4.3999999999999619e-05 4.6000000000001599e-05 2.3999999999997907e-05 4.3999999999999619e-05 4.6000000000001599e-05 2.3999999999997907e-05 0.0040000000000000001 0.001 -0.002 0 0 0 0 0 0 0 0 0 0
47 1 1.3417694402649791e-06 6.7088472013248956e-07 1.2648304464214065e-15 4.3999999999999619e-05 4.6000000000001599e-05 3.19999999999968e-05 4.3999999999999619e-05 4.6000000000001599e-05 3.19999999999968e-05 0.0040000000000000001 0.001 -0.002 0 0 0 0 0 0 0 0 0 0
48 1 2.0800602521238142e-06 1.0400301260619071e-06 4.7122287837783517e-15 4.3999999999999619e-05 4.6000000000001599e-05 3.9999999999996798e-05 4.3999999999999619e-05 4.6000000000001599e-05 3.9999999999996798e-05 0.0040000000000000001 0.001 -0.002 0 0 0 0 0 0 0 0 0 0
49 1 2.5597464927361749e-06 1.2798732463680874e-06 8.7819203161921523e-15 4.3999999999999619e-05 4.6000000000001599e-05 4.7999999999996803e-05 4.3999999999999619e-05 4.6000000000001599e-05 4.7999999999996803e-05 0.0040000000000000001 0.001 -0.002 0 0 0 0 0 0 0 0 0 0
50 1 1.3211203577827332e-06 6.6056017889136659e-07 1.2073294014683255e-15 4.3999999999999619e-05 4.6000000000001599e-05 5.5999999999996794e-05 4.3999999999999619e-05 4.6000000000001599e-05 5.5999999999996794e-05 0.0040000000000000001 0.001 -0.002 0 0 0 0 0 0 0 0 0 0
51 1 1.5643925705288943e-06 7.8219628526444715e-07 2.00463752930321e-15 4.3999999999999619e-05 5.4000000000001597e-05 6.3999999999997463e-05 4.3999999999999619e-05 5.4000000000001597e-05 -1.600000000000253e-05 0.0040000000000000001 0.001 -0.002 0 0 0 0 0 0 0 0 0 -1
52 1 1.4465972940999361e-06 7.2329864704996805e-07 1.5850448941978023e-15 4.3999999999999619e-05 5.4000000000001597e-05 7.1999999999998809e-05 4.3999999999999619e-05 5.4000000000001597e-05 -8.0000000000011838e-06 0.0040000000000000001 0.001 -0.002 0 0 0 0 0 0 0 0 0 -1
53 1 1.9596362485529969e-06 9.7981812427649847e-07 3.9402612265202198e-15 4.3999999999999619e-05 5.4000000000001597e-05 1.6970437447137916e-19 4.3999999999999619e-05 5.4000000000001597e-05 1.6970437447137916e-19 0.0040000000000000001 0.001 -0.002 0 0 0 0 0 0 0 0 0 0
54 1 2.2688564953753328e-06 1.1344282476876664e-06 6.115327293350762e-15 4.3999999999999619e-05 5.4000000000001597e-05 8.0000000000001911e-06 4.3999999999999619e-05 5.4000000000001597e-05 8.0000000000001911e-06 0.0040000000000000001 0.001 -0.002 0 0 0 0 0 0 0 0 0 0
55 1 1.8565029133749012e-06 9.2825145668745062e-07 3.3503141192226965e-15 4.3999999999999619e-05 5.4000000000001597e-05 1.5999999999999264e-05 4.3999999999999619e-05 5.4000000000001597e-05 1.5999999999999264e-05 0.0040000000000000001 0.001 -0.002 0 0 0 0 0 0 0 0 0 0
56 1 2.3550438192809779e-06 1.177521909640489e-06 6.8390471696436915e-15 4.3999999999999619e-05 5.4000000000001597e-05 2.3999999999997907e-05 4.3999999999999619e-05 5.4000000000001597e-05 2.3999999999997907e-05 0.0040000000000000001 0.001 -0.002 0 0 0 0 0 0 0 0 0 0
57 1 3.8827617364573771e-06 1.9413808682286885e-06 3.064932015322803e-14 4.3999999999999619e-05 5.4000000000001597e-05 3.19999999999968e-05 4.3999999999999619e-05 5.4000000000001597e-05 3.19999999999968e-05 0.0040000000000000001 0.001 -0.002 0 0 0 0 0 0 0 0 0 0
58 1 2.945689269078547e-06 1.4728446345392735e-06 1.3383183116015309e-14 4.3999999999999619e-05 5.4000000000001597e-05 3.9999999999996798e-05 4.3999999999999619e-05 5.4000000000001597e-05 3.9999999999996798e-05 0.0040000000000000001 0.001 -0.002 0 0 0 0 0 0 0 0 0 0
59 1 1.598730813825518e-06 7.99365406912759e-07 2.1395609318153364e-15 4.3999999999999619e-05 5.4000000000001597e-05 4.7999999999996803e-05 4.3999999999999619e-05 5.4000000000001597e-05 4.7999999999996803e-05 0.0040000000000000001 0.001 -0.002 0 0 0 0 0 0 0 0 0 0
60 1 1.7143477357987399e-06 8.5717386789936994e-07 2.6381250447141585e-15 4.3999999999999619e-05 5.4000000000001597e-05 5.5999999999996794e-05 4.3999999999999619e-05 5.4000000000001597e-05 5.5999999999996794e-05 0.0040000000000000001 0.001 -0.002 0 0 0 0 0 0 0 0 0 0
61 1 1.235332137103711e-06 6.1766606855185549e-07 9.8707429301952496e-16 4.3999999999999619e-05 6.2000000000000938e-05 6.3999999999997463e-05 4.3999999999999619e-05 6.2000000000000938e-05 -1.600000000000253e-05 0.0040000000000000001 0.001 -0.002 0 0 0 0 0 0 0 0 0 -1
62 1 1.2630478889786632e-06 6.3152394448933161e-07 1.0550136393233872e-15 4.3999999999999619e-05 6.2000000000000938e-05 7.1999999999998809e-05 4.3999999999999619e-05 6.2000000000000938e-05 -8.0000000000011838e-06 0.0040000000000000001 0.001 -0.002 0 0 0 0 0 0 0 0 0 -1
63 1 2.412834257207491e-06 1.2064171286037455e-06 7.3549731770966155e-15 4.3999999999999619e-05 6.2000000000000938e-05 1.6970437447137916e-19 4.3999999999999619e-05 6.2000000000000938e-05 1.6970437447137916e-19 0.0040000000000000001 0.001 -0.002 0 0 0 0 0 0 0 0 0 0
64 1 2.0666275097221591e-06 1.0333137548610796e-06 4.6215242989083635e-15 4.3999999999999619e-05 6.2000000000000938e-05 8.0000000000001911e-06 4.3999999999999619e-05 6.2000000000000938e-05 8.0000000000001911e-06 0.0040000000000000001 0.001 -0.002 0 0 0 0 0 0 0 0 0 0
65 1 2.0759999845542412e-06 1.0379999922771206e-06 4.6846878700308985e-15 4.3999999999999619e-05 6.2000000000000938e-05 1.5999999999999264e-05 4.3999999999999619e-05 6.2000000000000938e-05 1.5999999999999264e-05 0.0040000000000000001 0.001 -0.002 0 0 0 0 0 0 0 0 0 0
66 1 1.386143987867133e-06 6.930719939335665e-07 1.3945165063777835e-15 4.3999999999999619e-05 6.2000000000000938e-05 2.3999999999997907e-05 4.3999999999999619e-05 6.2000000000000938e-05 2.3999999999997907e-05 0.0040000000000000001 0.001 -0.002 0 0 0 0 0 0 0 0 0 0
67 1 1.3846530519996288e-06 6.923265259998144e-07 1.3900215206169797e-15 4.3999999999999619e-05 6.2000000000000938e-05 3.19999999999968e-05 4.3999999999999619e-05 6.2000000000000938e-05 3.19999999999968e-05 0.0040000000000000001 0.001 -0.002 0 0 0 0 0 0 0 0 0 0
68 1 3.989994832258521e-06 1.9949974161292605e-06 3.325949279017974e-14 4.3999999999999619e-05 6.2000000000000938e-05 3.9999999999996798e-05 4.3999999999999619e-05 6.2000000000000938e-05 3.9999999999996798e-05 0.0040000000000000001 0.001 -0.002 0 0 0 0 0 0 0 0 0 0
69 1 2.8206403336526573e-06 1.4103201668263287e-06 1.1750105275373786e-14 4.3999999999999619e-05 6.2000000000000938e-05 4.7999999999996803e-05 4.3999999999999619e-05 6.2000000000000938e-05 4.7999999999996803e-05 0.0040000000000000001 0.001 -0.002 0 0 0 0 0 0 0 0 0 0
70 1 2.0797546609834775e-06 1.0398773304917388e-06 4.7101522038082866e-15 4.3999999999999619e-05 6.2000000000000938e-05 5.5999999999996794e-05 4.3999999999999619e-05 6.2000000000000938e-05 5.5999999999996794e-05 0.0040000000000000001 0.001 -0.002 0 0 0 0 0 0 0 0 0 0
71 1 1.8774639379594031e-06 9.3873196897970153e-07 3.4650813416894017e-15 4.3999999999999619e-05 6.9999999999995522e-05 6.3999999999997463e-05 4.3999999999999619e-05 6.9999999999995522e-05 -1.600000000000253e-05 0.0040000000000000001 0.001 -0.002 0 0 0 0 0 0 0 0 0 -1
72 1 2.7747234223324362e-06 1.3873617111662181e-06 1.1185559772803066e-14 4.3999999999999619e-05 6.9999999999995522e-05 7.1999999999998809e-05 4.3999999999999619e-05 6.9999999999995522e-05 -8.0000000000011838e-06 0.0040000000000000001 0.001 -0.002 0 0 0 0 0 0 0 0 0 -1
73 1 2.8481728556352065e-06 1.4240864278176033e-06 1.2097556291446694e-14 4.3999999999999619e-05 6.9999999999995522e-05 1.6970437447137916e-19 4.3999999999999619e-05 6.9999999999995522e-05 1.6970437447137916e-19 0.0040000000000000001 0.001 -0.002 0 0 0 0 0 0 0 0 0 0
74 1 1.8904384662489001e-06 9.4521923312445006e-07 3.5374170052843062e-15 4.3999999999999619e-05 6.9999999999995522e-05 8.0000000000001911e-06 4.3999999999999619e-05 6.9999999999995522e-05 8.0000000000001911e-06 0.0040000000000000001 0.001 -0.002 0 0 0 0 0 0 0 0 0 0
75 1 1.8711690253966255e-06 9.3558451269831273e-07 3.430344059584922e-15 4.3999999999999619e-05 6.9999999999995522e-05 1.5999999999999264e-05 4.3999999999999619e-05 6.9999999999995522e-05 1.5999999999999264e-05 0.0040000000000000001 0.001 -0.002 0 0 0 0 0 0 0 0 0 0
76 1 1.9725712799943477e-06 9.8628563999717386e-07 4.0188031985964523e-15 4.3999999999999619e-05 6.9999999999995522e-05 2.3999999999997907e-05 4.3999999999999619e-05 6.9999999999995522e-05 2.3999999999997907e-05 0.0040000000000000001 0.001 -0.002 0 0 0 0 0 0 0 0 0 0
77 1 1.6378934976908156e-06 8.1894674884540778e-07 2.3006767238006537e-15 4.3999999999999619e-05 6.9999999999995522e-05 3.19999999999968e-05 4.3999999999999619e-05 6.9999999999995522e-05 3.19999999999968e-05 0.0040000000000000001 0.001 -0.002 0 0 0 0 0 0 0 0 0 0
78 1 2.6757122417125422e-06 1.3378561208562711e-06 1.0030367356703033e-14 4.3999999999999619e-05 6.9999999999995522e-05 3.9999999999996798e-05 4.3999999999999619e-05 6.9999999999995522e-05 3.9999999999996798e-05 0.0040000000000000001 0.001 -0.002 0 0 0 0 0 0 0 0 0 0
79 1 1.4012873884800663e-06 7.0064369424003316e-07 1.4407222472913994e-15 4.3999999999999619e-05 6.9999999999995522e-05 4.7999999999996803e-05 4.3999999999999619e-05 6.9999999999995522e-05 4.7999999999996803e-05 0.0040000000000000001 0.001 -0.002 0 0 0 0 0 0 0 0 0 0
80 1 1.3139594492572107e-06 6.5697972462860533e-07 1.1878032512219228e-15 4.3999999999999619e-05 6.9999999999995522e-05 5.5999999999996794e-05 4.3999999999999619e-05 6.9999999999995522e-05 5.5999999999996794e-05 0.0040000000000000001 0.001 -0.002 0 0 0 0 0 0 0 0 0 0
81 1 2.238504579656512e-06 1.119252289828256e-06 5.8731701652980947e-15 4.3999999999999619e-05 7.7999999999994822e-05 6.3999999999997463e-05 4.3999999999999619e-05 7.7999999999994822e-05 -1.600000000000253e-05 0.0040000000000000001 0.001 -0.002 0 0 0 0 0 0 0 0 0 -1
82 1 1.8962697133416477e-06 9.4813485667082383e-07 3.5702526349671932e-15 4.3999999999999619e-05 7.7999999999994822e-05 7.1999999999998809e-05 4.3999999999999619e-05 7.7999999999994822e-05 -8.0000000000011838e-06 0.0040000000000000001 0.001 -0.002 0 0 0 0 0 0 0 0 0 -1
83 1 1.9876618062303902e-06 9.938309031151951e-07 4.1117443113949081e-15 4.3999999999999619e-05 7.7999999999994822e-05 1.6970437447137916e-19 4.3999999999999619e-05 7.7999999999994822e-05 1.6970437447137916e-19 0.0040000000000000001 0.001 -0.002 0 0 0 0 0 0 0 0 0 0
84 1 1.5095848033177521e-06 7.5479240165887604e-07 1.8012382797914267e-15 4.3999999999999619e-05 7.7999999999994822e-05 8.0000000000001911e-06 4.3999999999999619e-05 7.7999999999994822e-05 8.0000000000001911e-06 0.0040000000000000001 0.001 -0.002 0 0 0 0 0 0 0 0 0 0
85 1 2.8028054338018511e-06 1.4014027169009256e-06 1.1528623988051134e-14 4.3999999999999619e-05 7.7999999999994822e-05 1.5999999999999264e-05 4.3999999999999619e-05 7.7999999999994822e-05 1.5999999999999264e-05 0.0040000000000000001 0.001 -0.002 0 0 0 0 0 0 0 0 0 0
86 1 1.4597480492045166e-06 7.2987402460225831e-07 1.6286671354383454e-15 4.3999999999999619e-05 7.7999999999994822e-05 2.3999999999997907e-05 4.3999999999999619e-05 7.7999999999994822e-05 2.3999999999997907e-05 0.0040000000000000001 0.001 -0.002 0 0 0 0 0 0 0 0 0 0
87 1 2.5711418086338041e-06 1.2855709043169021e-06 8.8997275854561206e-15 4.3999999999999619e-05 7.7999999999994822e-05 3.19999999999968e-05 4.3999999999999619e-05 7.7999999999994822e-05 3.19999999999968e-05 0.0040000000000000001 0.001 -0.002 0 0 0 0 0 0 0 0 0 0
88 1 1.4720022811746958e-06 7.3600114058734792e-07 1.6700292256604424e-15 4.3999999999999619e-05 7.7999999999994822e-05 3.9999999999996798e-05 4.3999999999999619e-05 7.7999999999994822e-05 3.9999999999996798e-05 0.0040000000000000001 0.001 -0.002 0 0 0 0 0 0 0 0 0 0
89 1 2.486049077526708e-06 1.243024538763354e-06 8.0450308892252608e-15 4.3999999999999619e-05 7.7999999999994822e-05 4.7999999999996803e-05 4.3999999999999619e-05 7.7999999999994822e-05 4.7999999999996803e-05 0.0040000000000000001 0.001 -0.002 0 0 0 0 0 0 0 0 0 0
90 1 1.1411779797971603e-06 5.7058898989858016e-07 7.7814184619563972e-16 4.3999999999999619e-05 7.7999999999994822e-05 5.5999999999996794e-05 4.3999999999999619e-05 7.7999999999994822e-05 5.5999999999996794e-05 0.0040000000000000001 0.001 -0.002 0 0 0 0 0 0 0 0 0 0
91 1 1.4759110834254672e-06 7.3795554171273359e-07 1.6833685327875736e-15 4.3999999999999619e-05 5.9999999999978741e-06 6.3999999999997463e-05 4.3999999999999619e-05 8.5999999999997862e-05 -1.600000000000253e-05 0.0040000000000000001 0.001 -0.002 0 0 0 0 0 0 0 0 1 -1
92 1 2.1474019860587779e-06 1.073700993029389e-06 5.1848795724751624e-15 4.3999999999999619e-05 5.9999999999978741e-06 7.1999999999998809e-05 4.3999999999999619e-05 8.5999999999997862e-05 -8.0000000000011838e-06 0.0040000000000000001 0.001 -0.002 0 0 0 0 0 0 0 0 1 -1
93 1 2.0080649777743188e-06 1.0040324888871594e-06 4.2396685706419308e-15 4.3999999999999619e-05 5.9999999999978741e-06 1.6970437447137916e-19 4.3999999999999619e-05 8.5999999999997862e-05 1.6970437447137916e-19 0.0040000000000000001 0.001 -0.002 0 0 0 0 0 0 0 0 1 0
94 1 1.3078966884527089e-06 6.5394834422635445e-07 1.1714370151900251e-15 4.3999999999999619e-05 5.9999999999978741e-06 8.0000000000001911e-06 4.3999999999999619e-05 8.5999999999997862e-05 8.0000000000001911e-06 0.0040000000000000001 0.001 -0.002 0 0 0 0 0 0 0 0 1 0
95 1 1.2531215650939498e-06 6.2656078254697491e-07 1.0303344805587426e-15 4.3999999999999619e-05 5.9999999999978741e-06 1.5999999999999264e-05 4.3999999999999619e-05 8.5999999999997862e-05 1.5999999999999264e-05 0.0040000000000000001 0.001 -0.002 0 0 0 0 0 0 0 0 1 0
96 1 1.332168923925411e-06 6.6608446196270549e-07 1.2378742180163319e-15 4.3999999999999619e-05 5.9999999999978741e-06 2.3999999999997907e-05 4.3999999999999619e-05 8.5999999999997862e-05 2.3999999999997907e-05 0.0040000000000000001 0.001 -0.002 0 0 0 0 0 0 0 0 1 0
97 1 1.1811973492990075e-06 5.9059867464950377e-07 8.6291101630091788e-16 4.3999999999999619e-05 5.9999999999978741e-06 3.19999999999968e-05 4.3999999999999619e-05 8.5999999999997862e-05 3.19999999999968e-05 0.0040000000000000001 0.001 -0.002 0 0 0 0 0 0 0 0 1 0
98 1 2.8264174469490535e-06 1.4132087234745268e-06 1.1822451418761969e-14 4.3999999999999619e-05 5.9999999999978741e-06 3.9999999999996798e-05 4.3999999999999619e-05 8.5999999999997862e-05 3.9999999999996798e-05 0.0040000000000000001 0.001 -0.002 0 0 0 0 0 0 0 0 1 0
99 1 2.1936221630817443e-06 1.0968110815408721e-06 5.5269317069042729e-15 4.3999999999999619e-05 5.9999999999978741e-06 4.7999999999996803e-05 4.3999999999999619e-05 8.5999999999997862e-05 4.7999999999996803e-05 0.0040000000000000001 0.001 -0.002 0 0 0 0 0 0 0 0 1 0
100 1 2.3503712472815694e-06 1.1751856236407847e-06 6.7984204358823493e-15 4.3999999999999619e-05 5.9999999999978741e-06 5.5999999999996794e-05 4.3999999999999619e-05 8.5999999999997862e-05 5.5999999999996794e-05 0.0040000000000000001 0.001 -0.002 0 0 0 0 0 0 0 0 1 0
101 1 2.4082057377577303e-06 1.2041028688788652e-06 7.3127273729868882e-15 5.1999999999999617e-05 1.3999999999999905e-05 6.3999999999997463e-05 5.1999999999999617e-05 1.3999999999999905e-05 -1.600000000000253e-05 0.0040000000000000001 0.001 -0.002 0 0 0 0 0 0 0 0 0 -1
102 1 3.3289336626638307e-06 1.6644668313319153e-06 1.9315859814152036e-14 5.1999999999999617e-05 1.3999999999999905e-05 7.1999999999998809e-05 5.1999999999999617e-05 1.3999999999999905e-05 -8.0000000000011838e-06 0.0040000000000000001 0.001 -0.002 0 0 0 0 0 0 0 0 0 -1
103 1 1.315660567019732e-06 6.5783028350986601e-07 1.1924225953736983e-15 5.1999999999999617e-05 1.3999999999999905e-05 1.6970437447137916e-19 5.1999999999999617e-05 1.3999999999999905e-05 1.6970437447137916e-19 0.0040000000000000001 0.001 -0.002 0 0 0 0 0 0 0 0 0 0
104 1 3.25301696742949e-06 1.626508483714745e-06 1.802426682427331e-14 5.1999999999999617e-05 1.3999999999999905e-05 8.0000000000001911e-06 5.1999999999999617e-05 1.3999999999999905e-05 8.0000000000001911e-06 0.0040000000000000001 0.001 -0.002 0 0 0 0 0 0 0 0 0 0
105 1 1.5884552876074334e-06 7.942276438037167e-07 2.0985707062789167e-15 5.1999999999999617e-05 1.3999999999999905e-05 1.5999999999999264e-05 5.1999999999999617e-05 1.3999999999999905e-05 1.5999999999999264e-05 0.0040000000000000001 0.001 -0.002 0 0 0 0 0 0 0 0 0 0
106 1 2.4104087835760633e-06 1.2052043917880317e-06 7.3328149620673426e-15 5.1999999999999617e-05 1.3999999999999905e-05 2.3999999999997907e-05 5.1999999999999617e-05 1.3999999999999905e-05 2.3999999999997907e-05 0.0040000000000000001 0.001 -0.002 0 0 0 0 0 0 0 0 0 0
107 1 2.2611591298466979e-06 1.1305795649233489e-06 6.0532972886172014e-15 5.1999999999999617e-05 1.3999999999999905e-05 3.19999999999968e-05 5.1999999999999617e-05 1.3999999999999905e-05 3.19999999999968e-05 0.0040000000000000001 0.001 -0.002 0 0 0 0 0 0 0 0 0 0
108 1 9.8192445473677938e-07 4.9096222736838969e-07 4.957159022150557e-16 5.1999999999999617e-05 1.3999999999999905e-05 3.9999999999996798e-05 5.1999999999999617e-05 1.3999999999999905e-05 3.9999999999996798e-05 0.0040000000000000001 0.001 -0.002 0 0 0 0 0 0 0 0 0 0
109 1 1.7654337350018458e-06 8.8271686750092292e-07 2.8810638659603459e-15 5.1999999999999617e-05 1.3999999999999905e-05 4.7999999999996803e-05 5.1999999999999617e-05 1.3999999999999905e-05 4.7999999999996803e-05 0.0040000000000000001 0.001 -0.002 0 0 0 0 0 0 0 0 0 0
110 1 1.1315907840866241e-06 5.6579539204331203e-07 7.5869431133707064e-16 5.1999999999999617e-05 1.3999999999999905e-05 5.5999999999996794e-05 5.1999999999999617e-05 1.3999999999999905e-05 5.5999999999996794e-05 0.0040000000000000001 0.001 -0.002 0 0 0 0 0 0 0 0 0 0
111 1 1.7572205155159001e-06 8.7861025775795005e-07 2.841040451169923e-15 5.1999999999999617e-05 2.2000000000001046e-05 6.3999999999997463e-05 5.1999999999999617e-05 2.2000000000001046e-05 -1.600000000000253e-05 0.0040000000000000001 0.001 -0.002 0 0 0 0 0 0 0 0 0 -1
112 1 2.8525832925114745e-06 1.4262916462557372e-06 1.2153843085310182e-14 5.1999999999999617e-05 2.2000000000001046e-05 7.1999999999998809e-05 5.1999999999999617e-05 2.2000000000001046e-05 -8.0000000000011838e-06 0.0040000000000000001 0.001 -0.002 0 0 0 0 0 0 0 0 0 -1
113 1 1.7750968665018952e-06 8.875484332509476e-07 2.9286319389841847e-15 5.1999999999999617e-05 2.2000000000001046e-05 1.6970437447137916e-19 5.1999999999999617e-05 2.2000000000001046e-05 1.6970437447137916e-19 0.0040000000000000001 0.001 -0.002 0 0 0 0 0 0 0 0 0 0
114 1 1.3700764609810346e-06 6.8503823049051729e-07 1.346582719388971e-15 5.1999999999999617e-05 2.2000000000001046e-05 8.0000000000001911e-06 5.1999999999999617e-05 2.2000000000001046e-05 8.0000000000001911e-06 0.0040000000000000001 0.001 -0.002 0 0 0 0 0 0 0 0 0 0
115 1 3.0248898332126251e-06 1.5124449166063125e-06 1.4491966084837168e-14 5.1999999999999617e-05 2.2000000000001046e-05 1.5999999999999264e-05 5.1999999999999617e-05 2.2000000000001046e-05 1.5999999999999264e-05 0.0040000000000000001 0.001 -0.002 0 0 0 0 0 0 0 0 0 0
116 1 3.5171754650847243e-06 1.7585877325423621e-06 2.2781416664176207e-14 5.1999999999999617e-05 2.2000000000001046e-05 2.3999999999997907e-05 5.1999999999999617e-05 2.2000000000001046e-05 2.3999999999997907e-05 0.0040000000000000001 0.001 -0.002 0 0 0 0 0 0 0 0 0 0
117 1 1.8929550699797927e-06 9.4647753498989637e-07 3.5515631410202436e-15 5.1999999999999617e-05 2.2000000000001046e-05 3.19999999999968e-05 5.1999999999999617e-05 2.2000000000001046e-05 3.19999999999968e-05 0.0040000000000000001 0.001 -0.002 0 0 0 0 0 0 0 0 0 0
118 1 2.750652422649976e-06 1.375326211324988e-06 1.0896970349824872e-14 5.1999999999999617e-05 2.2000000000001046e-05 3.9999999999996798e-05 5.1999999999999617e-05 2.2000000000001046e-05 3.9999999999996798e-05 0.0040000000000000001 0.001 -0.002 0 0 0 0 0 0 0 0 0 0
119 1 2.4815863809917475e-06 1.2407931904958737e-06 8.0017838086990845e-15 5.1999999999999617e-05 2.2000000000001046e-05 4.7999999999996803e-05 5.1999999999999617e-05 2.2000000000001046e-05 4.7999999999996803e-05 0.0040000000000000001 0.001 -0.002 0 0 0 0 0 0 0 0 0 0
120 1 1.6077477396525126e-06 8.038738698262563e-07 2.175967203577858e-15 5.1999999999999617e-05 2.2000000000001046e-05 5.5999999999996794e-05 5.1999999999999617e-05 2.2000000000001046e-05 5.5999999999996794e-05 0.0040000000000000001 0.001 -0.002 0 0 0 0 0 0 0 0 0 0
121 1 1.921800309567062e-06 9.60900154783531e-07 3.716408111664571e-15 5.1999999999999617e-05 3.0000000000001597e-05 6.3999999999997463e-05 5.1999999999999617e-05 3.0000000000001597e-05 -1.600000000000253e-05 0.0040000000000000001 0.001 -0.002 0 0 0 0 0 0 0 0 0 -1
122 1 1.7063710013895018e-06 8.5318550069475089e-07 2.6014711153909893e-15 5.1999999999999617e-05 3.0000000000001597e-05 7.1999999999998809e-05 5.1999999999999617e-05 3.0000000000001597e-05 -8.0000000000011838e-06 0.0040000000000000001 0.001 -0.002 0 0 0 0 0 0 0 0 0 -1
123 1 2.4915082866260679e-06 1.2457541433130339e-06 8.0981465191586679e-15 5.1999999999999617e-05 3.0000000000001597e-05 1.6970437447137916e-19 5.1999999999999617e-05 3.0000000000001597e-05 1.6970437447137916e-19 0.0040000000000000001 0.001 -0.002 0 0 0 0 0 0 0 0 0 0
124 1 1.3080398821014113e-06 6.5401994105070564e-07 1.1718218178453174e-15 5.1999999999999617e-05 3.0000000000001597e-05 8.0000000000001911e-06 5.1999999999999617e-05 3.0000000000001597e-05 8.0000000000001911e-06 0.0040000000000000001 0.001 -0.002 0 0 0 0 0 0 0 0 0 0
125 1 1.9065535892376861e-06 9.5327679461884305e-07 3.6286549502309329e-15 5.1999999999999617e-05 3.0000000000001597e-05 1.5999999999999264e-05 5.1999999999999617e-05 3.0000000000001597e-05 1.5999999999999264e-05 0.0040000000000000001 0.001 -0.002 0 0 0 0 0 0 0 0 0 0
126 1 3.047100470562774e-06 1.523550235281387e-06 1.4813543087195224e-14 5.1999999999999617e-05 3.0000000000001597e-05 2.3999999999997907e-05 5.1999999999999617e-05 3.0000000000001597e-05 2.3999999999997907e-05 0.0040000000000000001 0.001 -0.002 0 0 0 0 0 0 0 0 0 0
127 1 1.1575450429150173e-06 5.7877252145750867e-07 8.1210525501447645e-16 5.1999999999999617e-05 3.0000000000001597e-05 3.19999999999968e-05 5.1999999999999617e-05 3.0000000000001597e-05 3.19999999999968e-05 0.0040000000000000001 0.001 -0.002 0 0 0 0 0 0 0 0 0 0
128 1 1.3129565731054135e-06 6.5647828655270677e-07 1.1850855632664376e-15 5.1999999999999617e-05 3.0000000000001597e-05 3.9999999999996798e-05 5.1999999999999617e-05 3.0000000000001597e-05 3.9999999999996798e-05 0.0040000000000000001 0.001 -0.002 0 0 0 0 0 0 0 0 0 0
129 1 1.2691075673935047e-06 6.3455378369675235e-07 1.0702714078218248e-15 5.1999999999999617e-05 3.0000000000001597e-05 4.7999999999996803e-05 5.1999999999999617e-05 3.0000000000001597e-05 4.7999999999996803e-05 0.0040000000000000001 0.001 -0.002 0 0 0 0 0 0 0 0 0 0
130 1 1.8961918926700102e-06 9.4809594633500511e-07 3.5698130961389887e-15 5.1999999999999617e-05 3.0000000000001597e-05 5.5999999999996794e-05 5.1999999999999617e-05 3.0000000000001597e-05 5.5999999999996794e-05 0.0040000000000000001 0.001 -0.002 0 0 0 0 0 0 0 0 0 0
131 1 1.8846803178541512e-06 9.423401589270756e-07 3.5051911599786884e-15 5.1999999999999617e-05 3.8000000000001595e-05 6.3999999999997463e-05 5.1999999999999617e-05 3.8000000000001595e-05 -1.600000000000253e-05 0.0040000000000000001 0.001 -0.002 0 0 0 0 0 0 0 0 0 -1
132 1 1.7696267152550336e-06 8.8481335762751678e-07 2.9016406071865207e-15 5.1999999999999617e-05 3.8000000000001595e-05 7.1999999999998809e-05 5.1999999999999617e-05 3.8000000000001595e-05 -8.0000000000011838e-06 0.0040000000000000001 0.001 -0.002 0 0 0 0 0 0 0 0 0 -1
133 1 2.0568690913761279e-06 1.0284345456880639e-06 4.5563657489704587e-15 5.1999999999999617e-05 3.8000000000001595e-05 1.6970437447137916e-19 5.1999999999999617e-05 3.8000000000001595e-05 1.6970437447137916e-19 0.0040000000000000001 0.001 -0.002 0 0 0 0 0 0 0 0 0 0
134 1 1.7078002535236641e-06 8.5390012676183204e-07 2.608013549592331e-15 5.1999999999999617e-05 3.8000000000001595e-05 8.0000000000001911e-06 5.1999999999999617e-05 3.8000000000001595e-05 8.0000000000001911e-06 0.0040000000000000001 0.001 -0.002 0 0 0 0 0 0 0 0 0 0
135 1 2.9117782372198109e-06 1.4558891186099055e-06 1.2926278528332144e-14 5.1999999999999617e-05 3.8000000000001595e-05 1.5999999999999264e-05 5.1999999999999617e-05 3.8000000000001595e-05 1.5999999999999264e-05 0.0040000000000000001 0.001 -0.002 0 0 0 0 0 0 0 0 0 0
136 1 2.3101164659579757e-06 1.1550582329789878e-06 6.4550594934392005e-15 5.1999999999999617e-05 3.8000000000001595e-05 2.3999999999997907e-05 5.1999999999999617e-05 3.8000000000001595e-05 2.3999999999997907e-05 0.0040000000000000001 0.001 -0.002 0 0 0 0 0 0 0 0 0 0
137 1 2.7637637262600853e-06 1.3818818631300427e-06 1.1053539304810039e-14 5.1999999999999617e-05 3.8000000000001595e-05 3.19999999999968e-05 5.1999999999999617e-05 3.8000000000001595e-05 3.19999999999968e-05 0.0040000000000000001 0.001 -0.002 0 0 0 0 0 0 0 0 0 0
138 1 1.5094044045371965e-06 7.5470220226859827e-07 1.8005926008760181e-15 5.1999999999999617e-05 3.8000000000001595e-05 3.9999999999996798e-05 5.1999999999999617e-05 3.8000000000001595e-05 3.9999999999996798e-05 0.0040000000000000001 0.001 -0.002 0 0 0 0 0 0 0 0 0 0
139 1 2.0537479269782489e-06 1.0268739634891244e-06 4.5356552460363929e-15 5.1999999999999617e-05 3.8000000000001595e-05 4.7999999999996803e-05 5.1999999999999617e-05 3.8000000000001595e-05 4.7999999999996803e-05 0.0040000000000000001 0.001 -0.002 0 0 0 0 0 0 0 0 0 0
140 1 2.0255993542045429e-06 1.0127996771022715e-06 4.3517032451494902e-15 5.1999999999999617e-05 3.8000000000001595e-05 5.5999999999996794e-05 5.1999999999999617e-05 3.8000000000001595e-05 5.5999999999996794e-05 0.0040000000000000001 0.001 -0.002 0 0 0 0 0 0 0 0 0 0
141 1 1.8114801672906281e-06 9.0574008364531406e-07 3.1124284258820982e-15 5.1999999999999617e-05 4.6000000000001599e-05 6.3999999999997463e-05 5.1999999999999617e-05 4.6000000000001599e-05 -1.600000000000253e-05 0.0040000000000000001 0.001 -0.002 0 0 0 0 0 0 0 0 0 -1
142 1 2.2350696771183962e-06 1.1175348385591981e-06 5.8461751429636904e-15 5.1999999999999617e-05 4.6000000000001599e-05 7.1999999999998809e-05 5.1999999999999617e-05 4.6000000000001599e-05 -8.0000000000011838e-06 0.0040000000000000001 0.001 -0.002 0 0 0 0 0 0 0 0 0 -1
143 1 1.3839955573640697e-06 6.9199777868203484e-07 1.3880423292551811e-15 5.1999999999999617e-05 4.6000000000001599e-05 1.6970437447137916e-19 5.1999999999999617e-05 4.6000000000001599e-05 1.6970437447137916e-19 0.0040000000000000001 0.001 -0.002 0 0 0 0 0 0 0 0 0 0
144 1 1.5869438581644619e-06 7.9347192908223094e-07 2.092585977908067e-15 5.1999999999999617e-05 4.6000000000001599e-05 8.0000000000001911e-06 5.1999999999999617e-05 4.6000000000001599e-05 8.0000000000001911e-06 0.0040000000000000001 0.001 -0.002 0 0 0 0 0 0 0 0 0 0
145 1 2.2127106145508515e-06 1.1063553072754258e-06 5.6724735554884996e-15 5.1999999999999617e-05 4.6000000000001599e-05 1.5999999999999264e-05 5.1999999999999617e-05 4.6000000000001599e-05 1.5999999999999264e-05 0.0040000000000000001 0.001 -0.002 0 0 0 0 0 0 0 0 0 0
146 1 1.8779219943777195e-06 9.3896099718885976e-07 3.4676181520976668e-15 5.1999999999999617e-05 4.6000000000001599e-05 2.3999999999997907e-05 5.1999999999999617e-05 4.6000000000001599e-05 2.3999999999997907e-05 0.0040000000000000001 0.001 -0.002 0 0 0 0 0 0 0 0 0 0
147 1 1.2113257289920328e-06 6.056628644960164e-07 9.3063942762615067e-16 5.1999999999999617e-05 4.6000000000001599e-05 3.19999999999968e-05 5.1999999999999617e-05 4.6000000000001599e-05 3.19999999999968e-05 0.0040000000000000001 0.001 -0.002 0 0 0 0 0 0 0 0 0 0
148 1 2.863501956957501e-06 1.4317509784787505e-06 1.2293939598924019e-14 5.1999999999999617e-05 4.6000000000001599e-05 3.9999999999996798e-05 5.1999999999999617e-05 4.6000000000001599e-05 3.9999999999996798e-05 0.0040000000000000001 0.001 -0.002 0 0 0 0 0 0 0 0 0 0
149 1 1.4082250298613726e-06 7.0411251493068628e-07 1.4622270036841741e-15 5.1999999999999617e-05 4.6000000000001599e-05 4.7999999999996803e-05 5.1999999999999617e-05 4.6000000000001599e-05 4.7999999999996803e-05 0.0040000000000000001 0.001 -0.002 0 0 0 0 0 0 0 0 0 0
150 1 3.1911815873599486e-06 1.5955907936799743e-06 1.7015831441183098e-14 5.1999999999999617e-05 4.6000000000001599e-05 5.5999999999996794e-05 5.1999999999999617e-05 4.6000000000001599e-05 5.5999999999996794e-05 0.0040000000000000001 0.001 -0.002 0 0 0 0 0 0 0 0 0 0
151 1 1.3727991405195074e-06 6.863995702597537e-07 1.3546266585755202e-15 5.1999999999999617e-05 5.4000000000001597e-05 6.3999999999997463e-05 5.1999999999999617e-05 5.4000000000001597e-05 -1.600000000000253e-05 0.0040000000000000001 0.001 -0.002 0 0 0 0 0 0 0 0 0 -1
152 1 3.2447986934739031e-06 1.6223993467369516e-06 1.7888004590340619e-14 5.1999999999999617e-05 5.4000000000001597e-05 7.1999999999998809e-05 5.1999999999999617e-05 5.4000000000001597e-05 -8.0000000000011838e-06 0.0040000000000000001 0.001 -0.002 0 0 0 0 0 0 0 0 0 -1
153 1 1.2148090521896198e-06 6.0740452609480989e-07 9.3869105752727219e-16 5.1999999999999617e-05 5.4000000000001597e-05 1.6970437447137916e-19 5.1999999999999617e-05 5.4000000000001597e-05 1.6970437447137916e-19 0.0040000000000000001 0.001 -0.002 0 0 0 0 0 0 0 0 0 0
154 1 2.4355096708459025e-06 1.2177548354229513e-06 7.5642904703529178e-15 5.1999999999999617e-05 5.4000000000001597e-05 8.0000000000001911e-06 5.1999999999999617e-05 5.4000000000001597e-05 8.0000000000001911e-06 0.0040000000000000001 0.001 -0.002 0 0 0 0 0 0 0 0 0 0
155 1 2.2739124678737534e-06 1.1369562339368767e-06 6.1563010768108413e-15 5.1999999999999617e-05 5.4000000000001597e-05 1.5999999999999264e-05 5.1999999999999617e-05 5.4000000000001597e-05 1.5999999999999264e-05 0.0040000000000000001 0.001 -0.002 0 0 0 0 0 0 0 0 0 0
156 1 2.9596743635863942e-06 1.4798371817931971e-06 1.357470543585247e-14 5.1999999999999617e-05 5.4000000000001597e-05 2.3999999999997907e-05 5.1999999999999617e-05 5.4000000000001597e-05 2.3999999999997907e-05 0.0040000000000000001 0.001 -0.002 0 0 0 0 0 0 0 0 0 0
157 1 1.4497645986693654e-06 7.2488229933468272e-07 1.5954790072006249e-15 5.1999999999999617e-05 5.4000000000001597e-05 3.19999999999968e-05 5.1999999999999617e-05 5.4000000000001597e-05 3.19999999999968e-05 0.0040000000000000001 0.001 -0.002 0 0 0 0 0 0 0 0 0 0
158 1 2.2071015718602427e-06 1.1035507859301214e-06 5.6294450269774227e-15 5.1999999999999617e-05 5.4000000000001597e-05 3.9999999999996798e-05 5.1999999999999617e-05 5.4000000000001597e-05 3.9999999999996798e-05 0.0040000000000000001 0.001 -0.002 0 0 0 0 0 0 0 0 0 0
159 1 1.3348905980403462e-06 6.674452990201731e-07 1.245476808113554e-15 5.1999999999999617e-05 5.4000000000001597e-05 4.7999999999996803e-05 5.1999999999999617e-05 5.4000000000001597e-05 4.7999999999996803e-05 0.0040000000000000001 0.001 -0.002 0 0 0 0 0 0 0 0 0 0
160 1 1.1864509814688126e-06 5.9322549073440628e-07 8.7447625642757234e-16 5.1999999999999617e-05 5.4000000000001597e-05 5.5999999999996794e-05 5.1999999999999617e-05 5.4000000000001597e-05 5.5999999999996794e-05 0.0040000000000000001 0.001 -0.002 0 0 0 0 0 0 0 0 0 0
161 1 2.5035107187864654e-06 1.2517553593932327e-06 8.2157456932050103e-15 5.1999999999999617e-05 6.2000000000000938e-05 6.3999999999997463e-05 5.1999999999999617e-05 6.2000000000000938e-05 -1.600000000000253e-05 0.0040000000000000001 0.001 -0.002 0 0 0 0 0 0 0 0 0 -1
162 1 1.050655936441632e-06 5.2532796822081598e-07 6.0726769504576126e-16 5.1999999999999617e-05 6.2000000000000938e-05 7.1999999999998809e-05 5.1999999999999617e-05 6.2000000000000938e-05 -8.0000000000011838e-06 0.0040000000000000001 0.001 -0.002 0 0 0 0 0 0 0 0 0 -1
163 1 1.2970036019747897e-06 6.4850180098739486e-07 1.1424104547048866e-15 5.1999999999999617e-05 6.2000000000000938e-05 1.6970437447137916e-19 5.1999999999999617e-05 6.2000000000000938e-05 1.6970437447137916e-19 0.0040000000000000001 0.001 -0.002 0 0 0 0 0 0 0 0 0 0
164 1 1.672225377482246e-06 8.3611268874112302e-07 2.4484038410446118e-15 5.1999999999999617e-05 6.2000000000000938e-05 8.0000000000001911e-06 5.1999999999999617e-05 6.2000000000000938e-05 8.0000000000001911e-06 0.0040000000000000001 0.001 -0.002 0 0 0 0 0 0 0 0 0 0
165 1 1.6601612965999587e-06 8.3008064829997937e-07 2.3957940227977621e-15 5.1999999999999617e-05 6.2000000000000938e-05 1.5999999999999264e-05 5.1999999999999617e-05 6.2000000000000938e-05 1.5999999999999264e-05 0.0040000000000000001 0.001 -0.002 0 0 0 0 0 0 0 0 0 0
166 1 1.7207479874811187e-06 8.6037399374055937e-07 2.6677825849414737e-15 5.1999999999999617e-05 6.2000000000000938e-05 2.3999999999997907e-05 5.1999999999999617e-05 6.2000000000000938e-05 2.3999999999997907e-05 0.0040000000000000001 0.001 -0.002 0 0 0 0 0 0 0 0 0 0
167 1 1.5333750066960497e-06 7.6668750334802486e-07 1.8877468873536893e-15 5.1999999999999617e-05 6.2000000000000938e-05 3.19999999999968e-05 5.1999999999999617e-05 6.2000000000000938e-05 3.19999999999968e-05 0.0040000000000000001 0.001 -0.002 0 0 0 0 0 0 0 0 0 0
168 1 1.6597072061876011e-06 8.2985360309380056e-07 2.3938286543265466e-15 5.1999999999999617e-05 6.2000000000000938e-05 3.9999999999996798e-05 5.1999999999999617e-05 6.2000000000000938e-05 3.9999999999996798e-05 0.0040000000000000001 0.001 -0.002 0 0 0 0 0 0 0 0 0 0
169 1 1.37477737253786e-06 6.8738868626893001e-07 1.3604912367268776e-15 5.1999999999999617e-05 6.2000000000000938e-05 4.7999999999996803e-05 5.1999999999999617e-05 6.2000000000000938e-05 4.7999999999996803e-05 0.0040000000000000001 0.001 -0.002 0 0 0 0 0 0 0 0 0 0
170 1 1.2743542668654514e-06 6.371771334327257e-07 1.0836003947164099e-15 5.1999999999999617e-05 6.2000000000000938e-05 5.5999999999996794e-05 5.1999999999999617e-05 6.2000000000000938e-05 5.5999999999996794e-05 0.0040000000000000001 0.001 -0.002 0 0 0 0 0 0 0 0 0 0
171 1 1.4064736442782983e-06 7.0323682213914915e-07 1.4567781451934422e-15 5.1999999999999617e-05 6.9999999999995522e-05 6.3999999999997463e-05 5.1999999999999617e-05 6.9999999999995522e-05 -1.600000000000253e-05 0.0040000000000000001 0.001 -0.002 0 0 0 0 0 0 0 0 0 -1
172 1 2.2319242385865676e-06 1.1159621192932838e-06 5.8215276993367938e-15 5.1999999999999617e-05 6.9999999999995522e-05 7.1999999999998809e-05 5.1999999999999617e-05 6.9999999999995522e-05 -8.0000000000011838e-06 0.0040000000000000001 0.001 -0.002 0 0 0 0 0 0 0 0 0 -1
173 1 1.427672670470219e-06 7.1383633523510949e-07 1.5236476998564017e-15 5.1999999999999617e-05 6.9999999999995522e-05 1.6970437447137916e-19 5.1999999999999617e-05 6.9999999999995522e-05 1.6970437447137916e-19 0.0040000000000000001 0.001 -0.002 0 0 0 0 0 0 0 0 0 0
174 1 1.1045002460266481e-06 5.5225012301332405e-07 7.05498464969598e-16 5.1999999999999617e-05 6.9999999999995522e-05 8.0000000000001911e-06 5.1999999999999617e-05 6.9999999999995522e-05 8.0000000000001911e-06 0.0040000000000000001 0.001 -0.002 0 0 0 0 0 0 0 0 0 0
175 1 1.077242694542605e-06 5.3862134727130249e-07 6.5454467637594226e-16 5.1999999999999617e-05 6.9999999999995522e-05 1.5999999999999264e-05 5.1999999999999617e-05 6.9999999999995522e-05 1.5999999999999264e-05 0.0040000000000000001 0.001 -0.002 0 0 0 0 0 0 0 0 0 0
176 1 1.2509080760355261e-06 6.2545403801776304e-07 1.0248842319928074e-15 5.1999999999999617e-05 6.9999999999995522e-05 2.3999999999997907e-05 5.1999999999999617e-05 6.9999999999995522e-05 2.3999999999997907e-05 0.0040000000000000001 0.001 -0.002 0 0 0 0 0 0 0 0 0 0
177 1 2.0154022268817723e-06 1.0077011134408862e-06 4.2863124391831807e-15 5.1999999999999617e-05 6.9999999999995522e-05 3.19999999999968e-05 5.1999999999999617e-05 6.9999999999995522e-05 3.19999999999968e-05 0.0040000000000000001 0.001 -0.002 0 0 0 0 0 0 0 0 0 0
178 1 2.3655166527481799e-06 1.1827583263740899e-06 6.9306928346371659e-15 5.1999999999999617e-05 6.9999999999995522e-05 3.9999999999996798e-05 5.1999999999999617e-05 6.9999999999995522e-05 3.9999999999996798e-05 0.0040000000000000001 0.001 -0.002 0 0 0 0 0 0 0 0 0 0
179 1 2.0535024364081969e-06 1.0267512182040984e-06 4.5340289595471704e-15 5.1999999999999617e-05 6.9999999999995522e-05 4.7999999999996803e-05 5.1999999999999617e-05 6.9999999999995522e-05 4.7999999999996803e-05 0.0040000000000000001 0.001 -0.002 0 0 0 0 0 0 0 0 0 0
180 1 1.0993589752470388e-06 5.496794876235194e-07 6.9569230780357493e-16 5.1999999999999617e-05 6.9999999999995522e-05 5.5999999999996794e-05 5.1999999999999617e-05 6.9999999999995522e-05 5.5999999999996794e-05 0.0040000000000000001 0.001 -0.002 0 0 0 0 0 0 0 0 0 0
181 1 1.6726042075119823e-06 8.3630210375599114e-07 2.4500682202358433e-15 5.1999999999999617e-05 7.7999999999994822e-05 6.3999999999997463e-05 5.1999999999999617e-05 7.7999999999994822e-05 -1.600000000000253e-05 0.0040000000000000001 0.001 -0.002 0 0 0 0 0 0 0 0 0 -1
182 1 1.9763220789979707e-06 9.8816103949898535e-07 4.0417718036219419e-15 5.1999999999999617e-05 7.7999999999994822e-05 7.1999999999998809e-05 5.1999999999999617e-05 7.7999999999994822e-05 -8.0000000000011838e-06 0.0040000000000000001 0.001 -0.002 0 0 0 0 0 0 0 0 0 -1
183 1 1.6680800437291796e-06 8.3404002186458982e-07 2.4302406576497389e-15 5.1999999999999617e-05 7.7999999999994822e-05 1.6970437447137916e-19 5.1999999999999617e-05 7.7999999999994822e-05 1.6970437447137916e-19 0.0040000000000000001 0.001 -0.002 0 0 0 0 0 0 0 0 0 0
184 1 2.3819586224188013e-06 1.1909793112094007e-06 7.0762189337501404e-15 5.1999999999999617e-05 7.7999999999994822e-05 8.0000000000001911e-06 5.1999999999999617e-05 7.7999999999994822e-05 8.0000000000001911e-06 0.0040000000000000001 0.001 -0.002 0 0 0 0 0 0 0 0 0 0
185 1 1.2119516235722268e-06 6.0597581178611341e-07 9.3208276325801136e-16 5.1999999999999617e-05 7.7999999999994822e-05 1.5999999999999264e-05 5.1999999999999617e-05 7.7999999999994822e-05 1.5999999999999264e-05 0.0040000000000000001 0.001 -0.002 0 0 0 0 0 0 0 0 0 0
186 1 3.3389905000589425e-06 1.6694952500294712e-06 1.9491451094994098e-14 5.1999999999999617e-05 7.7999999999994822e-05 2.3999999999997907e-05 5.1999999999999617e-05 7.7999999999994822e-05 2.3999999999997907e-05 0.0040000000000000001 0.001 -0.002 0 0 0 0 0 0 0 0 0 0
187 1 1.492994003691097e-06 7.4649700184554852e-07 1.7425001041492537e-15 5.1999999999999617e-05 7.7999999999994822e-05 3.19999999999968e-05 5.1999999999999617e-05 7.7999999999994822e-05 3.19999999999968e-05 0.0040000000000000001 0.001 -0.002 0 0 0 0 0 0 0 0 0 0
188 1 1.6435229149999187e-06 8.2176145749995936e-07 2.3244805323067916e-15 5.1999999999999617e-05 7.7999999999994822e-05 3.9999999999996798e-05 5.1999999999999617e-05 7.7999999999994822e-05 3.9999999999996798e-05 0.0040000000000000001 0.001 -0.002 0 0 0 0 0 0 0 0 0 0
189 1 1.5768216083495768e-06 7.8841080417478838e-07 2.052798447685027e-15 5.1999999999999617e-05 7.7999999999994822e-05 4.7999999999996803e-05 5.1999999999999617e-05 7.7999999999994822e-05 4.7999999999996803e-05 0.0040000000000000001 0.001 -0.002 0 0 0 0 0 0 0 0 0 0
190 1 1.8122495528967158e-06 9.0612477644835792e-07 3.1163959131810511e-15 5.1999999999999617e-05 7.7999999999994822e-05 5.5999999999996794e-05 5.1999999999999617e-05 7.7999999999994822e-05 5.5999999999996794e-05 0.0040000000000000001 0.001 -0.002 0 0 0 0 0 0 0 0 0 0
191 1 2.3066087325065134e-06 1.1533043662532567e-06 6.425699591327389e-15 5.1999999999999617e-05 5.9999999999978741e-06 6.3999999999997463e-05 5.1999999999999617e-05 8.5999999999997862e-05 -1.600000000000253e-05 0.0040000000000000001 0.001 -0.002 0 0 0 0 0 0 0 0 1 -1
192 1 1.6451472739504845e-06 8.2257363697524223e-07 2.3313794755163613e-15 5.1999999999999617e-05 5.9999999999978741e-06 7.1999999999998809e-05 5.1999999999999617e-05 8.5999999999997862e-05 -8.0000000000011838e-06 0.0040000000000000001 0.001 -0.002 0 0 0 0 0 0 0 0 1 -1
193 1 1.2431126784045216e-06 6.215563392022608e-07 1.005842795912978e-15 5.1999999999999617e-05 5.9999999999978741e-06 1.6970437447137916e-19 5.1999999999999617e-05 8.5999999999997862e-05 1.6970437447137916e-19 0.0040000000000000001 0.001 -0.002 0 0 0 0 0 0 0 0 1 0
194 1 1.7790487140009253e-06 8.8952435700046266e-07 2.9482353058387067e-15 5.1999999999999617e-05 5.9999999999978741e-06 8.0000000000001911e-06 5.1999999999999617e-05 8.5999999999997862e-05 8.0000000000001911e-06 0.0040000000000000001 0.001 -0.002 0 0 0 0 0 0 0 0 1 0
195 1 2.4471892189645932e-06 1.2235946094822966e-06 7.6736374117506057e-15 5.1999999999999617e-05 5.9999999999978741e-06 1.5999999999999264e-05 5.1999999999999617e-05 8.5999999999997862e-05 1.5999999999999264e-05 0.0040000000000000001 0.001 -0.002 0 0 0 0 0 0 0 0 1 0
196 1 4.2044381441558865e-06 2.1022190720779432e-06 3.8915491939297939e-14 5.1999999999999617e-05 5.9999999999978741e-06 2.3999999999997907e-05 5.1999999999999617e-05 8.5999999999997862e-05 2.3999999999997907e-05 0.0040000000000000001 0.001 -0.002 0 0 0 0 0 0 0 0 1 0
197 1 3.6513178798686245e-06 1.8256589399343122e-06 2.5488692255001218e-14 5.1999999999999617e-05 5.9999999999978741e-06 3.19999999999968e-05 5.1999999999999617e-05 8.5999999999997862e-05 3.19999999999968e-05 0.0040000000000000001 0.001 -0.002 0 0 0 0 0 0 0 0 1 0
198 1 2.5951799293119581e-06 1.297589964655979e-06 9.1516845853397226e-15 5.1999999999999617e-05 5.9999999999978741e-06 3.9999999999996798e-05 5.1999999999999617e-05 8.5999999999997862e-05 3.9999999999996798e-05 0.0040000000000000001 0.001 -0.002 0 0 0 0 0 0 0 0 1 0
199 1 2.1072475828656596e-06 1.0536237914328298e-06 4.8994272725732798e-15 5.1999999999999617e-05 5.9999999999978741e-06 4.7999999999996803e-05 5.1999999999999617e-05 8.5999999999997862e-05 4.7999999999996803e-05 0.0040000000000000001 0.001 -0.002 0 0 0 0 0 0 0 0 1 0
200 1 2.0624305321065213e-06 1.0312152660532607e-06 4.5934247942795218e-15 5.1999999999999617e-05 5.9999999999978741e-06 5.5999999999996794e-05 5.1999999999999617e-05 8.5999999999997862e-05 5.5999999999996794e-05 0.0040000000000000001 0.001 -0.002 0 0 0 0 0 0 0 0 1 0
201 1 3.4509621642250669e-06 1.7254810821125334e-06 2.1518857799389595e-14 5.9999999999999615e-05 1.3999999999999905e-05 6.3999999999997463e-05 5.9999999999999615e-05 1.3999999999999905e-05 -1.600000000000253e-05 0.0040000000000000001 0.001 -0.002 0 0 0 0 0 0 0 0 0 -1
202 1 1.4702980445346284e-06 7.3514902226731419e-07 1.6642354212222968e-15 5.9999999999999615e-05 1.3999999999999905e-05 7.1999999999998809e-05 5.9999999999999615e-05 1.3999999999999905e-05 -8.0000000000011838e-06 0.0040000000000000001 0.001 -0.002 0 0 0 0 0 0 0 0 0 -1
203 1 2.9326428668359448e-06 1.4663214334179724e-06 1.320614792461813e-14 5.9999999999999615e-05 1.3999999999999905e-05 1.6970437447137916e-19 5.9999999999999615e-05 1.3999999999999905e-05 1.6970437447137916e-19 0.0040000000000000001 0.001 -0.002 0 0 0 0 0 0 0 0 0 0
204 1 1.9320485511344956e-06 9.6602427556724781e-07 3.7761803638985392e-15 5.9999999999999615e-05 1.3999999999999905e-05 8.0000000000001911e-06 5.9999999999999615e-05 1.3999999999999905e-05 8.0000000000001911e-06 0.0040000000000000001 0.001 -0.002 0 0 0 0 0 0 0 0 0 0
205 1 1.7967233764584011e-06 8.9836168822920054e-07 3.0369824142910099e-15 5.9999999999999615e-05 1.3999999999999905e-05 1.5999999999999264e-05 5.9999999999999615e-05 1.3999999999999905e-05 1.5999999999999264e-05 0.0040000000000000001 0.001 -0.002 0 0 0 0 0 0 0 0 0 0
206 1 2.1666108436796251e-06 1.0833054218398126e-06 5.3252666579892145e-15 5.9999999999999615e-05 1.3999999999999905e-05 2.3999999999997907e-05 5.9999999999999615e-05 1.3999999999999905e-05 2.3999999999997907e-05 0.0040000000000000001 0.001 -0.002 0 0 0 0 0 0 0 0 0 0
207 1 2.1518972312230665e-06 1.0759486156115332e-06 5.2175089485743469e-15 5.9999999999999615e-05 1.3999999999999905e-05 3.19999999999968e-05 5.9999999999999615e-05 1.3999999999999905e-05 3.19999999999968e-05 0.0040000000000000001 0.001 -0.002 0 0 0 0 0 0 0 0 0 0
208 1 1.6575347781006042e-06 8.2876738905030209e-07 2.3844409443608428e-15 5.9999999999999615e-05 1.3999999999999905e-05 3.9999999999996798e-05 5.9999999999999615e-05 1.3999999999999905e-05 3.9999999999996798e-05 0.0040000000000000001 0.001 -0.002 0 0 0 0 0 0 0 0 0 0
209 1 1.20652657148246e-06 6.0326328574122998e-07 9.1962187851745327e-16 5.9999999999999615e-05 1.3999999999999905e-05 4.7999999999996803e-05 5.9999999999999615e-05 1.3999999999999905e-05 4.7999999999996803e-05 0.0040000000000000001 0.001 -0.002 0 0 0 0 0 0 0 0 0 0
210 1 1.6478314136618784e-06 8.2391570683093919e-07 2.3428093888967429e-15 5.9999999999999615e-05 1.3999999999999905e-05 5.5999999999996794e-05 5.9999999999999615e-05 1.3999999999999905e-05 5.5999999999996794e-05 0.0040000000000000001 0.001 -0.002 0 0 0 0 0 0 0 0 0 0
211 1 1.7840955496533204e-06 8.9204777482666019e-07 2.9733973633776486e-15 5.9999999999999615e-05 2.2000000000001046e-05 6.3999999999997463e-05 5.9999999999999615e-05 2.2000000000001046e-05 -1.600000000000253e-05 0.0040000000000000001 0.001 -0.002 0 0 0 0 0 0 0 0 0 -1
212 1 1.8299708147187029e-06 9.1498540735935143e-07 3.2087147645027131e-15 5.9999999999999615e-05 2.2000000000001046e-05 7.1999999999998809e-05 5.9999999999999615e-05 2.2000000000001046e-05 -8.0000000000011838e-06 0.0040000000000000001 0.001 -0.002 0 0 0 0 0 0 0 0 0 -1
213 1 1.9045990486166551e-06 9.5229952430832755e-07 3.6175064278501171e-15 5.9999999999999615e-05 2.2000000000001046e-05 1.6970437447137916e-19 5.9999999999999615e-05 2.2000000000001046e-05 1.6970437447137916e-19 0.0040000000000000001 0.001 -0.002 0 0 0 0 0 0 0 0 0 0
214 1 1.5982109625148039e-06 7.9910548125740196e-07 2.1374744793899301e-15 5.9999999999999615e-05 2.2000000000001046e-05 8.0000000000001911e-06 5.9999999999999615e-05 2.2000000000001046e-05 8.0000000000001911e-06 0.0040000000000000001 0.001 -0.002 0 0 0 0 0 0 0 0 0 0
215 1 1.9418687480667967e-06 9.7093437403339836e-07 3.8340541244804587e-15 5.9999999999999615e-05 2.2000000000001046e-05 1.5999999999999264e-05 5.9999999999999615e-05 2.2000000000001046e-05 1.5999999999999264e-05 0.0040000000000000001 0.001 -0.002 0 0 0 0 0 0 0 0 0 0
216 1 1.9868307702990956e-06 9.934153851495478e-07 4.1065891404144175e-15 5.9999999999999615e-05 2.2000000000001046e-05 2.3999999999997907e-05 5.9999999999999615e-05 2.2000000000001046e-05 2.3999999999997907e-05 0.0040000000000000001 0.001 -0.002 0 0 0 0 0 0 0 0 0 0
217 1 1.4571512242578263e-06 7.2857561212891317e-07 1.6199906160888925e-15 5.9999999999999615e-05 2.2000000000001046e-05 3.19999999999968e-05 5.9999999999999615e-05 2.2000000000001046e-05 3.19999999999968e-05 0.0040000000000000001 0.001 -0.002 0 0 0 0 0 0 0 0 0 0
218 1 1.5168207160521829e-06 7.5841035802609147e-07 1.8272643306727477e-15 5.9999999999999615e-05 2.2000000000001046e-05 3.9999999999996798e-05 5.9999999999999615e-05 2.2000000000001046e-05 3.9999999999996798e-05 0.0040000000000000001 0.001 -0.002 0 0 0 0 0 0 0 0 0 0
219 1 1.6879779056664571e-06 8.4398895283322857e-07 2.5182503068853797e-15 5.9999999999999615e-05 2.2000000000001046e-05 4.7999999999996803e-05 5.9999999999999615e-05 2.2000000000001046e-05 4.7999999999996803e-05 0.0040000000000000001 0.001 -0.002 0 0 0 0 0 0 0 0 0 0
220 1 3.5667777339815912e-06 1.7833888669907956e-06 2.3758923700598309e-14 5.9999999999999615e-05 2.2000000000001046e-05 5.5999999999996794e-05 5.9999999999999615e-05 2.2000000000001046e-05 5.5999999999996794e-05 0.0040000000000000001 0.001 -0.002 0 0 0 0 0 0 0 0 0 0
221 1 2.5086982180195909e-06 1.2543491090097955e-06 8.2669228812060067e-15 5.9999999999999615e-05 3.0000000000001597e-05 6.3999999999997463e-05 5.9999999999999615e-05 3.0000000000001597e-05 -1.600000000000253e-05 0.0040000000000000001 0.001 -0.002 0 0 0 0 0 0 0 0 0 -1
222 1 1.7760882120688744e-06 8.880441060344372e-07 2.9335413747284296e-15 5.9999999999999615e-05 3.0000000000001597e-05 7.1999999999998809e-05 5.9999999999999615e-05 3.0000000000001597e-05 -8.0000000000011838e-06 0.0040000000000000001 0.001 -0.002 0 0 0 0 0 0 0 0 0 -1
223 1 1.687722127193175e-06 8.4386106359658752e-07 2.5171057126001873e-15 5.9999999999999615e-05 3.0000000000001597e-05 1.6970437447137916e-19 5.9999999999999615e-05 3.0000000000001597e-05 1.6970437447137916e-19 0.0040000000000000001 0.001 -0.002 0 0 0 0 0 0 0 0 0 0
224 1 2.0105961993833241e-06 1.005298099691662e-06 4.2557214482757711e-15 5.9999999999999615e-05 3.0000000000001597e-05 8.0000000000001911e-06 5.9999999999999615e-05 3.0000000000001597e-05 8.0000000000001911e-06 0.0040000000000000001 0.001 -0.002 0 0 0 0 0 0 0 0 0 0
225 1 1.5492316950722295e-06 7.7461584753611474e-07 1.9469183689824014e-15 5.9999999999999615e-05 3.0000000000001597e-05 1.5999999999999264e-05 5.9999999999999615e-05 3.0000000000001597e-05 1.5999999999999264e-05 0.0040000000000000001 0.001 -0.002 0 0 0 0 0 0 0 0 0 0
226 1 2.3010465998062325e-06 1.1505232999031162e-06 6.3793269949405672e-15 5.9999999999999615e-05 3.0000000000001597e-05 2.3999999999997907e-05 5.9999999999999615e-05 3.0000000000001597e-05 2.3999999999997907e-05 0.0040000000000000001 0.001 -0.002 0 0 0 0 0 0 0 0 0 0
227 1 1.2965575774131678e-06 6.482787887065839e-07 1.1412322746699968e-15 5.9999999999999615e-05 3.0000000000001597e-05 3.19999999999968e-05 5.9999999999999615e-05 3.0000000000001597e-05 3.19999999999968e-05 0.0040000000000000001 0.001 -0.002 0 0 0 0 0 0 0 0 0 0
228 1 1.5348628083848266e-06 7.6743140419241332e-07 1.893247144619763e-15 5.9999999999999615e-05 3.0000000000001597e-05 3.9999999999996798e-05 5.9999999999999615e-05 3.0000000000001597e-05 3.9999999999996798e-05 0.0040000000000000001 0.001 -0.002 0 0 0 0 0 0 0 0 0 0
229 1 1.1830800797403583e-06 5.9154003987017913e-07 8.6704382206471965e-16 5.9999999999999615e-05 3.0000000000001597e-05 4.7999999999996803e-05 5.9999999999999615e-05 3.0000000000001597e-05 4.7999999999996803e-05 0.0040000000000000001 0.001 -0.002 0 0 0 0 0 0 0 0 0 0
230 1 2.813030066947469e-06 1.4065150334737345e-06 1.1655254060737344e-14 5.9999999999999615e-05 3.0000000000001597e-05 5.5999999999996794e-05 5.9999999999999615e-05 3.0000000000001597e-05 5.5999999999996794e-05 0.0040000000000000001 0.001 -0.002 0 0 0 0 0 0 0 0 0 0
231 1 2.0044725056762221e-06 1.0022362528381111e-06 4.2169546758236157e-15 5.9999999999999615e-05 3.8000000000001595e-05 6.3999999999997463e-05 5.9999999999999615e-05 3.8000000000001595e-05 -1.600000000000253e-05 0.0040000000000000001 0.001 -0.002 0 0 0 0 0 0 0 0 0 -1
232 1 1.4041894760489606e-06 7.020947380244803e-07 1.4496920716027696e-15 5.9999999999999615e-05 3.8000000000001595e-05 7.1999999999998809e-05 5.9999999999999615e-05 3.8000000000001595e-05 -8.0000000000011838e-06 0.0040000000000000001 0.001 -0.002 0 0 0 0 0 0 0 0 0 -1
233 1 1.5884051631616703e-06 7.9420258158083516e-07 2.0983720484222698e-15 5.9999999999999615e-05 3.8000000000001595e-05 1.6970437447137916e-19 5.9999999999999615e-05 3.8000000000001595e-05 1.6970437447137916e-19 0.0040000000000000001 0.001 -0.002 0 0 0 0 0 0 0 0 0 0
234 1 2.6022680367474754e-06 1.3011340183737377e-06 9.2268764312784828e-15 5.9999999999999615e-05 3.8000000000001595e-05 8.0000000000001911e-06 5.9999999999999615e-05 3.8000000000001595e-05 8.0000000000001911e-06 0.0040000000000000001 0.001 -0.002 0 0 0 0 0 0 0 0 0 0
235 1 1.495373217721382e-06 7.4768660886069101e-07 1.7508438567402216e-15 5.9999999999999615e-05 3.8000000000001595e-05 1.5999999999999264e-05 5.9999999999999615e-05 3.8000000000001595e-05 1.5999999999999264e-05 0.0040000000000000001 0.001 -0.002 0 0 0 0 0 0 0 0 0 0
236 1 2.885411406179934e-06 1.442705703089967e-06 1.2578297287896858e-14 5.9999999999999615e-05 3.8000000000001595e-05 2.3999999999997907e-05 5.9999999999999615e-05 3.8000000000001595e-05 2.3999999999997907e-05 0.0040000000000000001 0.001 -0.002 0 0 0 0 0 0 0 0 0 0
237 1 1.8758028557032413e-06 9.3790142785162063e-07 3.4558923062576318e-15 5.9999999999999615e-05 3.8000000000001595e-05 3.19999999999968e-05 5.9999999999999615e-05 3.8000000000001595e-05 3.19999999999968e-05 0.0040000000000000001 0.001 -0.002 0 0 0 0 0 0 0 0 0 0
238 1 1.1224231001597131e-06 5.6121155007985656e-07 7.4040341088867532e-16 5.9999999999999615e-05 3.8000000000001595e-05 3.9999999999996798e-05 5.9999999999999615e-05 3.8000000000001595e-05 3.9999999999996798e-05 0.0040000000000000001 0.001 -0.002 0 0 0 0 0 0 0 0 0 0
239 1 1.5857874525079914e-06 7.9289372625399571e-07 2.0880147097199655e-15 5.9999999999999615e-05 3.8000000000001595e-05 4.7999999999996803e-05 5.9999999999999615e-05 3.8000000000001595e-05 4.7999999999996803e-05 0.0040000000000000001 0.001 -0.002 0 0 0 0 0 0 0 0 0 0
240 1 1.4958373576463105e-06 7.4791867882315526e-07 1.7524746645855256e-15 5.9999999999999615e-05 3.8000000000001595e-05 5.5999999999996794e-05 5.9999999999999615e-05 3.8000000000001595e-05 5.5999999999996794e-05 0.0040000000000000001 0.001 -0.002 0 0 0 0 0 0 0 0 0 0
241 1 1.8913541743104643e-06 9.4567708715523213e-07 3.5425599559283344e-15 5.9999999999999615e-05 4.6000000000001599e-05 6.3999999999997463e-05 5.9999999999999615e-05 4.6000000000001599e-05 -1.600000000000253e-05 0.0040000000000000001 0.001 -0.002 0 0 0 0 0 0 0 0 0 -1
242 1 1.6733538103490331e-06 8.3667690517451657e-07 2.4533638019887296e-15 5.9999999999999615e-05 4.6000000000001599e-05 7.1999999999998809e-05 5.9999999999999615e-05 4.6000000000001599e-05 -8.0000000000011838e-06 0.0040000000000000001 0.001 -0.002 0 0 0 0 0 0 0 0 0 -1
243 1 3.5818587812633809e-06 1.7909293906316905e-06 2.4061572156065794e-14 5.9999999999999615e-05 4.6000000000001599e-05 1.6970437447137916e-19 5.9999999999999615e-05 4.6000000000001599e-05 1.6970437447137916e-19 0.0040000000000000001 0.001 -0.002 0 0 0 0 0 0 0 0 0 0
244 1 2.7165851711929194e-06 1.3582925855964597e-06 1.0497082233506335e-14 5.9999999999999615e-05 4.6000000000001599e-05 8.0000000000001911e-06 5.9999999999999615e-05 4.6000000000001599e-05 8.0000000000001911e-06 0.0040000000000000001 0.001 -0.002 0 0 0 0 0 0 0 0 0 0
245 1 1.2008987665186573e-06 6.0044938325932866e-07 9.0681316921625137e-16 5.9999999999999615e-05 4.6000000000001599e-05 1.5999999999999264e-05 5.9999999999999615e-05 4.6000000000001599e-05 1.5999999999999264e-05 0.0040000000000000001 0.001 -0.002 0 0 0 0 0 0 0 0 0 0
246 1 3.0055369473460716e-06 1.5027684736730358e-06 1.4215588250423542e-14 5.9999999999999615e-05 4.6000000000001599e-05 2.3999999999997907e-05 5.9999999999999615e-05 4.6000000000001599e-05 2.3999999999997907e-05 0.0040000000000000001 0.001 -0.002 0 0 0 0 0 0 0 0 0 0
247 1 1.5979658477724094e-06 7.9898292388620471e-07 2.1364911683581855e-15 5.9999999999999615e-05 4.6000000000001599e-05 3.19999999999968e-05 5.9999999999999615e-05 4.6000000000001599e-05 3.19999999999968e-05 0.0040000000000000001 0.001 -0.002 0 0 0 0 0 0 0 0 0 0
248 1 1.7928160531516019e-06 8.9640802657580093e-07 3.0172119503109587e-15 5.9999999999999615e-05 4.6000000000001599e-05 3.9999999999996798e-05 5.9999999999999615e-05 4.6000000000001599e-05 3.9999999999996798e-05 0.0040000000000000001 0.001 -0.002 0 0 0 0 0 0 0 0 0 0
249 1 1.1937677372190887e-06 5.9688386860954437e-07 8.9075472493806679e-16 5.9999999999999615e-05 4.6000000000001599e-05 4.7999999999996803e-05 5.9999999999999615e-05 4.6000000000001599e-05 4.7999999999996803e-05 0.0040000000000000001 0.001 -0.002 0 0 0 0 0 0 0 0 0 0
250 1 1.5836733959668535e-06 7.9183669798342676e-07 2.0796750691879781e-15 5.9999999999999615e-05 4.6000000000001599e-05 5.5999999999996794e-05 5.9999999999999615e-05 4.6000000000001599e-05 5.5999999999996794e-05 0.0040000000000000001 0.001 -0.002 0 0 0 0 0 0 0 0 0 0
251 1 2.1561063395032149e-06 1.0780531697516074e-06 5.2481851959495699e-15 5.9999999999999615e-05 5.4000000000001597e-05 6.3999999999997463e-05 5.9999999999999615e-05 5.4000000000001597e-05 -1.600000000000253e-05 0.0040000000000000001 0.001 -0.002 0 0 0 0 0 0 0 0 0 -1
252 1 1.7503199555728025e-06 8.7515997778640125e-07 2.8077016360782237e-15 5.9999999999999615e-05 5.4000000000001597e-05 7.1999999999998809e-05 5.9999999999999615e-05 5.4000000000001597e-05 -8.0000000000011838e-06 0.0040000000000000001 0.001 -0.002 0 0 0 0 0 0 0 0 0 -1
253 1 3.5517468386482475e-06 1.7758734193241238e-06 2.3459817539537497e-14 5.9999999999999615e-05 5.4000000000001597e-05 1.6970437447137916e-19 5.9999999999999615e-05 5.4000000000001597e-05 1.6970437447137916e-19 0.0040000000000000001 0.001 -0.002 0 0 0 0 0 0 0 0 0 0
254 1 3.6484028100112841e-06 1.824201405005642e-06 2.5427693445162101e-14 5.9999999999999615e-05 5.4000000000001597e-05 8.0000000000001911e-06 5.9999999999999615e-05 5.4000000000001597e-05 8.0000000000001911e-06 0.0040000000000000001 0.001 -0.002 0 0 0 0 0 0 0 0 0 0
255 1 1.9719181422055576e-06 9.8595907110277881e-07 4.0148125242171327e-15 5.9999999999999615e-05 5.4000000000001597e-05 1.5999999999999264e-05 5.9999999999999615e-05 5.4000000000001597e-05 1.5999999999999264e-05 0.0040000000000000001 0.001 -0.002 0 0 0 0 0 0 0 0 0 0
256 1 1.806311332776498e-06 9.0315566638824898e-07 3.0858615872830669e-15 5.9999999999999615e-05 5.4000000000001597e-05 2.3999999999997907e-05 5.9999999999999615e-05 5.4000000000001597e-05 2.3999999999997907e-05 0.0040000000000000001 0.001 -0.002 0 0 0 0 0 0 0 0 0 0
257 1 1.3274172488349192e-06 6.637086244174596e-07 1.2246753946359995e-15 5.9999999999999615e-05 5.4000000000001597e-05 3.19999999999968e-05 5.9999999999999615e-05 5.4000000000001597e-05 3.19999999999968e-05 0.0040000000000000001 0.001 -0.002 0 0 0 0 0 0 0 0 0 0
258 1 1.7874561730640403e-06 8.9372808653202017e-07 2.9902316125114517e-15 5.9999999999999615e-05 5.4000000000001597e-05 3.9999999999996798e-05 5.9999999999999615e-05 5.4000000000001597e-05 3.9999999999996798e-05 0.0040000000000000001 0.001 -0.002 0 0 0 0 0 0 0 0 0 0
259 1 1.2606257474394536e-06 6.3031287371972678e-07 1.0489556860580723e-15 5.9999999999999615e-05 5.4000000000001597e-05 4.7999999999996803e-05 5.9999999999999615e-05 5.4000000000001597e-05 4.7999999999996803e-05 0.0040000000000000001 0.001 -0.002 0 0 0 0 0 0 0 0 0 0
260 1 2.8307978497268303e-06 1.4153989248634151e-06 1.1877504221296066e-14 5.9999999999999615e-05 5.4000000000001597e-05 5.5999999999996794e-05 5.9999999999999615e-05 5.4000000000001597e-05 5.5999999999996794e-05 0.0040000000000000001 0.001 -0.002 0 0 0 0 0 0 0 0 0 0
261 1 1.2350128416969842e-06 6.1750642084849208e-07 9.8630910568870023e-16 5.9999999999999615e-05 6.2000000000000938e-05 6.3999999999997463e-05 5.9999999999999615e-05 6.2000000000000938e-05 -1.600000000000253e-05 0.0040000000000000001 0.001 -0.002 0 0 0 0 0 0 0 0 0 -1
262 1 2.8455981314940265e-06 1.4227990657470132e-06 1.2064777675592939e-14 5.9999999999999615e-05 6.2000000000000938e-05 7.1999999999998809e-05 5.9999999999999615e-05 6.2000000000000938e-05 -8.0000000000011838e-06 0.0040000000000000001 0.001 -0.002 0 0 0 0 0 0 0 0 0 -1
263 1 2.9582083279005308e-06 1.4791041639502654e-06 1.3554543271966738e-14 5.9999999999999615e-05 6.2000000000000938e-05 1.6970437447137916e-19 5.9999999999999615e-05 6.2000000000000938e-05 1.6970437447137916e-19 0.0040000000000000001 0.001 -0.002 0 0 0 0 0 0 0 0 0 0
264 1 2.2988973327368342e-06 1.1494486663684171e-06 6.3614680672719912e-15 5.9999999999999615e-05 6.2000000000000938e-05 8.0000000000001911e-06 5.9999999999999615e-05 6.2000000000000938e-05 8.0000000000001911e-06 0.0040000000000000001 0.001 -0.002 0 0 0 0 0 0 0 0 0 0
265 1 1.5384551064103779e-06 7.6922755320518894e-07 1.9065715371442386e-15 5.9999999999999615e-05 6.2000000000000938e-05 1.5999999999999264e-05 5.9999999999999615e-05 6.2000000000000938e-05 1.5999999999999264e-05 0.0040000000000000001 0.001 -0.002 0 0 0 0 0 0 0 0 0 0
266 1 1.710354858441382e-06 8.55177429220691e-07 2.619734619161801e-15 5.9999999999999615e-05 6.2000000000000938e-05 2.3999999999997907e-05 5.9999999999999615e-05 6.2000000000000938e-05 2.3999999999997907e-05 0.0040000000000000001 0.001 -0.002 0 0 0 0 0 0 0 0 0 0
267 1 2.415977107277255e-06 1.2079885536386275e-06 7.3837514078666005e-15 5.9999999999999615e-05 6.2000000000000938e-05 3.19999999999968e-05 5.9999999999999615e-05 6.2000000000000938e-05 3.19999999999968e-05 0.0040000000000000001 0.001 -0.002 0 0 0 0 0 0 0 0 0 0
268 1 2.1286365571297097e-06 1.0643182785648549e-06 5.0501371373687649e-15 5.9999999999999615e-05 6.2000000000000938e-05 3.9999999999996798e-05 5.9999999999999615e-05 6.2000000000000938e-05 3.9999999999996798e-05 0.0040000000000000001 0.001 -0.002 0 0 0 0 0 0 0 0 0 0
269 1 1.8390699868835772e-06 9.195349934417886e-07 3.2568172747892389e-15 5.9999999999999615e-05 6.2000000000000938e-05 4.7999999999996803e-05 5.9999999999999615e-05 6.2000000000000938e-05 4.7999999999996803e-05 0.0040000000000000001 0.001 -0.002 0 0 0 0 0 0 0 0 0 0
270 1 1.2923544524294271e-06 6.4617722621471356e-07 1.1301694212359881e-15 5.9999999999999615e-05 6.2000000000000938e-05 5.5999999999996794e-05 5.9999999999999615e-05 6.2000000000000938e-05 5.5999999999996794e-05 0.0040000000000000001 0.001 -0.002 0 0 0 0 0 0 0 0 0 0
271 1 3.5029083678806918e-06 1.7514541839403459e-06 2.2505307576664317e-14 5.9999999999999615e-05 6.9999999999995522e-05 6.3999999999997463e-05 5.9999999999999615e-05 6.9999999999995522e-05 -1.600000000000253e-05 0.0040000000000000001 0.001 -0.002 0 0 0 0 0 0 0 0 0 -1
272 1 1.8097697306578682e-06 9.0488486532893408e-07 3.1036202921609197e-15 5.9999999999999615e-05 6.9999999999995522e-05 7.1999999999998809e-05 5.9999999999999615e-05 6.9999999999995522e-05 -8.0000000000011838e-06 0.0040000000000000001 0.001 -0.002 0 0 0 0 0 0 0 0 0 -1
273 1 1.7983414320528364e-06 8.9917071602641819e-07 3.0451947520359991e-15 5.9999999999999615e-05 6.9999999999995522e-05 1.6970437447137916e-19 5.9999999999999615e-05 6.9999999999995522e-05 1.6970437447137916e-19 0.0040000000000000001 0.001 -0.002 0 0 0 0 0 0 0 0 0 0
274 1 1.0760922098487088e-06 5.3804610492435438e-07 6.5244977330951705e-16 5.9999999999999615e-05 6.9999999999995522e-05 8.0000000000001911e-06 5.9999999999999615e-05 6.9999999999995522e-05 8.0000000000001911e-06 0.0040000000000000001 0.001 -0.002 0 0 0 0 0 0 0 0 0 0
275 1 2.7675872001248418e-06 1.3837936000624209e-06 1.109947819567583e-14 5.9999999999999615e-05 6.9999999999995522e-05 1.5999999999999264e-05 5.9999999999999615e-05 6.9999999999995522e-05 1.5999999999999264e-05 0.0040000000000000001 0.001 -0.002 0 0 0 0 0 0 0 0 0 0
276 1 2.4026268648613238e-06 1.2013134324306619e-06 7.262022810657532e-15 5.9999999999999615e-05 6.9999999999995522e-05 2.3999999999997907e-05 5.9999999999999615e-05 6.9999999999995522e-05 2.3999999999997907e-05 0.0040000000000000001 0.001 -0.002 0 0 0 0 0 0 0 0 0 0
277 1 1.2163947896007058e-06 6.0819739480035289e-07 9.4237178757244548e-16 5.9999999999999615e-05 6.9999999999995522e-05 3.19999999999968e-05 5.9999999999999615e-05 6.9999999999995522e-05 3.19999999999968e-05 0.0040000000000000001 0.001 -0.002 0 0 0 0 0 0 0 0 0 0
278 1 2.9994777869261957e-06 1.4997388934630979e-06 1.4129785612775357e-14 5.9999999999999615e-05 6.9999999999995522e-05 3.9999999999996798e-05 5.9999999999999615e-05 6.9999999999995522e-05 3.9999999999996798e-05 0.0040000000000000001 0.001 -0.002 0 0 0 0 0 0 0 0 0 0
279 1 1.7387469663276693e-06 8.6937348316383464e-07 2.7523761004843948e-15 5.9999999999999615e-05 6.9999999999995522e-05 4.7999999999996803e-05 5.9999999999999615e-05 6.9999999999995522e-05 4.7999999999996803e-05 0.0040000000000000001 0.001 -0.002 0 0 0 0 0 0 0 0 0 0
280 1 3.5050932377197206e-06 1.7525466188598603e-06 2.2547445570435748e-14 5.9999999999999615e-05 6.9999999999995522e-05 5.5999999999996794e-05 5.9999999999999615e-05 6.9999999999995522e-05 5.5999999999996794e-05 0.0040000000000000001 0.001 -0.002 0 0 0 0 0 0 0 0 0 0
281 1 1.6702632485888376e-06 8.3513162429441881e-07 2.4397953437990807e-15 5.9999999999999615e-05 7.7999999999994822e-05 6.3999999999997463e-05 5.9999999999999615e-05 7.7999999999994822e-05 -1.600000000000253e-05 0.0040000000000000001 0.001 -0.002 0 0 0 0 0 0 0 0 0 -1
282 1 2.8372702189628762e-06 1.4186351094814381e-06 1.1959161231325974e-14 5.9999999999999615e-05 7.7999999999994822e-05 7.1999999999998809e-05 5.9999999999999615e-05 7.7999999999994822e-05 -8.0000000000011838e-06 0.0040000000000000001 0.001 -0.002 0 0 0 0 0 0 0 0 0 -1
283 1 1.9511564582579443e-06 9.7557822912897213e-07 3.8893310393968648e-15 5.9999999999999615e-05 7.7999999999994822e-05 1.6970437447137916e-19 5.9999999999999615e-05 7.7999999999994822e-05 1.6970437447137916e-19 0.0040000000000000001 0.001 -0.002 0 0 0 0 0 0 0 0 0 0
284 1 1.7417351611671814e-06 8.7086758058359069e-07 2.76659112849365e-15 5.9999999999999615e-05 7.7999999999994822e-05 8.0000000000001911e-06 5.9999999999999615e-05 7.7999999999994822e-05 8.0000000000001911e-06 0.0040000000000000001 0.001 -0.002 0 0 0 0 0 0 0 0 0 0
285 1 2.1589969799693874e-06 1.0794984899846937e-06 5.2693218591051555e-15 5.9999999999999615e-05 7.7999999999994822e-05 1.5999999999999264e-05 5.9999999999999615e-05 7.7999999999994822e-05 1.5999999999999264e-05 0.0040000000000000001 0.001 -0.002 0 0 0 0 0 0 0 0 0 0
286 1 2.1291339264771804e-06 1.0645669632385902e-06 5.0536779536870373e-15 5.9999999999999615e-05 7.7999999999994822e-05 2.3999999999997907e-05 5.9999999999999615e-05 7.7999999999994822e-05 2.3999999999997907e-05 0.0040000000000000001 0.001 -0.002 0 0 0 0 0 0 0 0 0 0
287 1 1.1423858094005701e-06 5.7119290470028504e-07 7.8061523215680313e-16 5.9999999999999615e-05 7.7999999999994822e-05 3.19999999999968e-05 5.9999999999999615e-05 7.7999999999994822e-05 3.19999999999968e-05 0.0040000000000000001 0.001 -0.002 0 0 0 0 0 0 0 0 0 0
288 1 1.4231578480247388e-06 7.1157892401236942e-07 1.5092383720030446e-15 5.9999999999999615e-05 7.7999999999994822e-05 3.9999999999996798e-05 5.9999999999999615e-05 7.7999999999994822e-05 3.9999999999996798e-05 0.0040000000000000001 0.001 -0.002 0 0 0 0 0 0 0 0 0 0
289 1 3.0976132416718151e-06 1.5488066208359076e-06 1.5562529897444527e-14 5.9999999999999615e-05 7.7999999999994822e-05 4.7999999999996803e-05 5.9999999999999615e-05 7.7999999999994822e-05 4.7999999999996803e-05 0.0040000000000000001 0.001 -0.002 0 0 0 0 0 0 0 0 0 0
290 1 2.7876618901297469e-06 1.3938309450648734e-06 1.1342764520331474e-14 5.9999999999999615e-05 7.7999999999994822e-05 5.5999999999996794e-05 5.9999999999999615e-05 7.7999999999994822e-05 5.5999999999996794e-05 0.0040000000000000001 0.001 -0.002 0 0 0 0 0 0 0 0 0 0
291 1 2.9943959736144116e-06 1.4971979868072058e-06 1.4058089785550014e-14 5.9999999999999615e-05 5.9999999999978741e-06 6.3999999999997463e-05 5.9999999999999615e-05 8.5999999999997862e-05 -1.600000000000253e-05 0.0040000000000000001 0.001 -0.002 0 0 0 0 0 0 0 0 1 -1
292 1 1.5004784701487954e-06 7.5023923507439771e-07 1.7688374602063656e-15 5.9999999999999615e-05 5.9999999999978741e-06 7.1999999999998809e-05 5.9999999999999615e-05 8.5999999999997862e-05 -8.0000000000011838e-06 0.0040000000000000001 0.001 -0.002 0 0 0 0 0 0 0 0 1 -1
293 1 1.6749649040385074e-06 8.374824520192537e-07 2.4604568728114844e-15 5.9999999999999615e-05 5.9999999999978741e-06 1.6970437447137916e-19 5.9999999999999615e-05 8.5999999999997862e-05 1.6970437447137916e-19 0.0040000000000000001 0.001 -0.002 0 0 0 0 0 0 0 0 1 0
294 1 2.3223866570054475e-06 1.1611933285027237e-06 6.558465000276037e-15 5.9999999999999615e-05 5.9999999999978741e-06 8.0000000000001911e-06 5.9999999999999615e-05 8.5999999999997862e-05 8.0000000000001911e-06 0.0040000000000000001 0.001 -0.002 0 0 0 0 0 0 0 0 1 0
295 1 1.6009415695238881e-06 8.0047078476194405e-07 2.1484490891496803e-15 5.9999999999999615e-05 5.9999999999978741e-06 1.5999999999999264e-05 5.9999999999999615e-05 8.5999999999997862e-05 1.5999999999999264e-05 0.0040000000000000001 0.001 -0.002 0 0 0 0 0 0 0 0 1 0
296 1 1.7238956598615955e-06 8.6194782993079775e-07 2.68244947816987e-15 5.9999999999999615e-05 5.9999999999978741e-06 2.3999999999997907e-05 5.9999999999999615e-05 8.5999999999997862e-05 2.3999999999997907e-05 0.0040000000000000001 0.001 -0.002 0 0 0 0 0 0 0 0 1 0
297 1 1.8861015028182594e-06 9.4305075140912971e-07 3.513126642138466e-15 5.9999999999999615e-05 5.9999999999978741e-06 3.19999999999968e-05 5.9999999999999615e-05 8.5999999999997862e-05 3.19999999999968e-05 0.0040000000000000001 0.001 -0.002 0 0 0 0 0 0 0 0 1 0
298 1 2.6901355189448138e-06 1.3450677594724069e-06 1.019344768475087e-14 5.9999999999999615e-05 5.9999999999978741e-06 3.9999999999996798e-05 5.9999999999999615e-05 8.5999999999997862e-05 3.9999999999996798e-05 0.0040000000000000001 0.001 -0.002 0 0 0 0 0 0 0 0 1 0
299 1 2.3478340584264547e-06 1.1739170292132274e-06 6.776427829321843e-15 5.9999999999999615e-05 5.9999999999978741e-06 4.7999999999996803e-05 5.9999999999999615e-05 8.5999999999997862e-05 4.7999999999996803e-05 0.0040000000000000001 0.001 -0.002 0 0 0 0 0 0 0 0 1 0
300 1 1.979106187653554e-06 9.8955309382677701e-07 4.0588772008325479e-15 5.9999999999999615e-05 5.9999999999978741e-06 5.5999999999996794e-05 5.9999999999999615e-05 8.5999999999997862e-05 5.5999999999996794e-05 0.0040000000000000001 0.001 -0.002 0 0 0 0 0 0 0 0 1 0
301 1 1.4796173838359229e-06 7.3980869191796144e-07 1.6960822054238847e-15 6.8000000000000799e-05 1.3999999999999905e-05 6.3999999999997463e-05 6.8000000000000799e-05 1.3999999999999905e-05 -1.600000000000253e-05 0.0040000000000000001 0.001 -0.002 0 0 0 0 0 0 0 0 0 -1
302 1 2.0514388702064153e-06 1.0257194351032076e-06 4.5203739429561598e-15 6.8000000000000799e-05 1.3999999999999905e-05 7.1999999999998809e-05 6.8000000000000799e-05 1.3999999999999905e-05 -8.0000000000011838e-06 0.0040000000000000001 0.001 -0.002 0 0 0 0 0 0 0 0 0 -1
303 1 1.9124887671764013e-06 9.5624438358820065e-07 3.6626490018323675e-15 6.8000000000000799e-05 1.3999999999999905e-05 1.6970437447137916e-19 6.8000000000000799e-05 1.3999999999999905e-05 1.6970437447137916e-19 0.0040000000000000001 0.001 -0.002 0 0 0 0 0 0 0 0 0 0
304 1 1.275479334227171e-06 6.3773966711358548e-07 1.0864729084883776e-15 6.8000000000000799e-05 1.3999999999999905e-05 8.0000000000001911e-06 6.8000000000000799e-05 1.3999999999999905e-05 8.0000000000001911e-06 0.0040000000000000001 0.001 -0.002 0 0 0 0 0 0 0 0 0 0
305 1 2.1571233793756496e-06 1.0785616896878248e-06 5.2556154395285815e-15 6.8000000000000799e-05 1.3999999999999905e-05 1.5999999999999264e-05 6.8000000000000799e-05 1.3999999999999905e-05 1.5999999999999264e-05 0.0040000000000000001 0.001 -0.002 0 0 0 0 0 0 0 0 0 0
306 1 2.9272323012508097e-06 1.4636161506254049e-06 1.3133188835420557e-14 6.8000000000000799e-05 1.3999999999999905e-05 2.3999999999997907e-05 6.8000000000000799e-05 1.3999999999999905e-05 2.3999999999997907e-05 0.0040000000000000001 0.001 -0.002 0 0 0 0 0 0 0 0 0 0
307 1 2.1451718394871789e-06 1.0725859197435894e-06 5.1687423465973518e-15 6.8000000000000799e-05 1.3999999999999905e-05 3.19999999999968e-05 6.8000000000000799e-05 1.3999999999999905e-05 3.19999999999968e-05 0.0040000000000000001 0.001 -0.002 0 0 0 0 0 0 0 0 0 0
308 1 3.0164211139406609e-06 1.5082105569703304e-06 1.437058799853538e-14 6.8000000000000799e-05 1.3999999999999905e-05 3.9999999999996798e-05 6.8000000000000799e-05 1.3999999999999905e-05 3.9999999999996798e-05 0.0040000000000000001 0.001 -0.002 0 0 0 0 0 0 0 0 0 0
309 1 1.6915858147363145e-06 8.4579290736815727e-07 2.5344324826053476e-15 6.8000000000000799e-05 1.3999999999999905e-05 4.7999999999996803e-05 6.8000000000000799e-05 1.3999999999999905e-05 4.7999999999996803e-05 0.0040000000000000001 0.001 -0.002 0 0 0 0 0 0 0 0 0 0
310 1 1.6821273474660752e-06 8.4106367373303758e-07 2.4921560727170217e-15 6.8000000000000799e-05 1.3999999999999905e-05 5.5999999999996794e-05 6.8000000000000799e-05 1.3999999999999905e-05 5.5999999999996794e-05 0.0040000000000000001 0.001 -0.002 0 0 0 0 0 0 0 0 0 0
311 1 1.1143820450465202e-06 5.5719102252326009e-07 7.2460435623698851e-16 6.8000000000000799e-05 2.2000000000001046e-05 6.3999999999997463e-05 6.8000000000000799e-05 2.2000000000001046e-05 -1.600000000000253e-05 0.0040000000000000001 0.001 -0.002 0 0 0 0 0 0 0 0 0 -1
312 1 1.6543451311432412e-06 8.2717256557162061e-07 2.3707020495796374e-15 6.8000000000000799e-05 2.2000000000001046e-05 7.1999999999998809e-05 6.8000000000000799e-05 2.2000000000001046e-05 -8.0000000000011838e-06 0.0040000000000000001 0.001 -0.002 0 0 0 0 0 0 0 0 0 -1
313 1 1.5684270795521113e-06 7.8421353977605564e-07 2.0201872146458996e-15 6.8000000000000799e-05 2.2000000000001046e-05 1.6970437447137916e-19 6.8000000000000799e-05 2.2000000000001046e-05 1.6970437447137916e-19 0.0040000000000000001 0.001 -0.002 0 0 0 0 0 0 0 0 0 0
314 1 1.2532394964787414e-06 6.2661974823937068e-07 1.0306254025515552e-15 6.8000000000000799e-05 2.2000000000001046e-05 8.0000000000001911e-06 6.8000000000000799e-05 2.2000000000001046e-05 8.0000000000001911e-06 0.0040000000000000001 0.001 -0.002 0 0 0 0 0 0 0 0 0 0
315 1 3.4175788206951586e-06 1.7087894103475793e-06 2.090038283381928e-14 6.8000000000000799e-05 2.2000000000001046e-05 1.5999999999999264e-05 6.8000000000000799e-05 2.2000000000001046e-05 1.5999999999999264e-05 0.0040000000000000001 0.001 -0.002 0 0 0 0 0 0 0 0 0 0
316 1 1.5334933181655387e-06 7.6674665908276937e-07 1.8881838828836778e-15 6.8000000000000799e-05 2.2000000000001046e-05 2.3999999999997907e-05 6.8000000000000799e-05 2.2000000000001046e-05 2.3999999999997907e-05 0.0040000000000000001 0.001 -0.002 0 0 0 0 0 0 0 0 0 0
317 1 1.5762846926829343e-06 7.8814234634146715e-07 2.0507021971274131e-15 6.8000000000000799e-05 2.2000000000001046e-05 3.19999999999968e-05 6.8000000000000799e-05 2.2000000000001046e-05 3.19999999999968e-05 0.0040000000000000001 0.001 -0.002 0 0 0 0 0 0 0 0 0 0
318 1 2.7959845441443207e-06 1.3979922720721603e-06 1.1444660692248216e-14 6.8000000000000799e-05 2.2000000000001046e-05 3.9999999999996798e-05 6.8000000000000799e-05 2.2000000000001046e-05 3.9999999999996798e-05 0.0040000000000000001 0.001 -0.002 0 0 0 0 0 0 0 0 0 0
319 1 1.9472859132873703e-06 9.7364295664368517e-07 3.8662309115493129e-15 6.8000000000000799e-05 2.2000000000001046e-05 4.7999999999996803e-05 6.8000000000000799e-05 2.2000000000001046e-05 4.7999999999996803e-05 0.0040000000000000001 0.001 -0.002 0 0 0 0 0 0 0 0 0 0
320 1 2.4117881104588354e-06 1.2058940552294177e-06 7.345410507422966e-15 6.8000000000000799e-05 2.2000000000001046e-05 5.5999999999996794e-05 6.8000000000000799e-05 2.2000000000001046e-05 5.5999999999996794e-05 0.0040000000000000001 0.001 -0.002 0 0 0 0 0 0 0 0 0 0
321 1 1.160491491419505e-06 5.8024574570975251e-07 8.1832252214993094e-16 6.8000000000000799e-05 3.0000000000001597e-05 6.3999999999997463e-05 6.8000000000000799e-05 3.0000000000001597e-05 -1.600000000000253e-05 0.0040000000000000001 0.001 -0.002 0 0 0 0 0 0 0 0 0 -1
322 1 1.9266666080101552e-06 9.633333040050776e-07 3.7447112355578996e-15 6.8000000000000799e-05 3.0000000000001597e-05 7.1999999999998809e-05 6.8000000000000799e-05 3.0000000000001597e-05 -8.0000000000011838e-06 0.0040000000000000001 0.001 -0.002 0 0 0 0 0 0 0 0 0 -1
323 1 2.9654750520843496e-06 1.4827375260421748e-06 1.3654677477147134e-14 6.8000000000000799e-05 3.0000000000001597e-05 1.6970437447137916e-19 6.8000000000000799e-05 3.0000000000001597e-05 1.6970437447137916e-19 0.0040000000000000001 0.001 -0.002 0 0 0 0 0 0 0 0 0 0
324 1 1.8054439079037937e-06 9.0272195395189686e-07 3.0814180545028538e-15 6.8000000000000799e-05 3.0000000000001597e-05 8.0000000000001911e-06 6.8000000000000799e-05 3.0000000000001597e-05 8.0000000000001911e-06 0.0040000000000000001 0.001 -0.002 0 0 0 0 0 0 0 0 0 0
325 1 1.8361169020439762e-06 9.1805845102198812e-07 3.2411535602329896e-15 6.8000000000000799e-05 3.0000000000001597e-05 1.5999999999999264e-05 6.8000000000000799e-05 3.0000000000001597e-05 1.5999999999999264e-05 0.0040000000000000001 0.001 -0.002 0 0 0 0 0 0 0 0 0 0
326 1 1.8959088194050789e-06 9.4795440970253947e-07 3.5682145746955885e-15 6.8000000000000799e-05 3.0000000000001597e-05 2.3999999999997907e-05 6.8000000000000799e-05 3.0000000000001597e-05 2.3999999999997907e-05 0.0040000000000000001 0.001 -0.002 0 0 0 0 0 0 0 0 0 0
327 1 2.854189723290084e-06 1.427094861645042e-06 1.2174387941787563e-14 6.8000000000000799e-05 3.0000000000001597e-05 3.19999999999968e-05 6.8000000000000799e-05 3.0000000000001597e-05 3.19999999999968e-05 0.0040000000000000001 0.001 -0.002 0 0 0 0 0 0 0 0 0 0
328 1 1.4184697366394427e-06 7.0923486831972136e-07 1.4943724270187755e-15 6.8000000000000799e-05 3.0000000000001597e-05 3.9999999999996798e-05 6.8000000000000799e-05 3.0000000000001597e-05 3.9999999999996798e-05 0.0040000000000000001 0.001 -0.002 0 0 0 0 0 0 0 0 0 0
329 1 1.1589510605881024e-06 5.7947553029405118e-07 8.1506813367935848e-16 6.8000000000000799e-05 3.0000000000001597e-05 4.7999999999996803e-05 6.8000000000000799e-05 3.0000000000001597e-05 4.7999999999996803e-05 0.0040000000000000001 0.001 -0.002 0 0 0 0 0 0 0 0 0 0
330 1 1.8760864659936739e-06 9.3804323299683694e-07 3.457460074663326e-15 6.8000000000000799e-05 3.0000000000001597e-05 5.5999999999996794e-05 6.8000000000000799e-05 3.0000000000001597e-05 5.5999999999996794e-05 0.0040000000000000001 0.001 -0.002 0 0 0 0 0 0 0 0 0 0
331 1 2.6559472296112371e-06 1.3279736148056186e-06 9.8097276015336022e-15 6.8000000000000799e-05 3.8000000000001595e-05 6.3999999999997463e-05 6.8000000000000799e-05 3.8000000000001595e-05 -1.600000000000253e-05 0.0040000000000000001 0.001 -0.002 0 0 0 0 0 0 0 0 0 -1
332 1 2.456525260802143e-06 1.2282626304010715e-06 7.7617978114123667e-15 6.8000000000000799e-05 3.8000000000001595e-05 7.1999999999998809e-05 6.8000000000000799e-05 3.8000000000001595e-05 -8.0000000000011838e-06 0.0040000000000000001 0.001 -0.002 0 0 0 0 0 0 0 0 0 -1
333 1 2.9136559476848275e-06 1.4568279738424138e-06 1.2951301859726486e-14 6.8000000000000799e-05 3.8000000000001595e-05 1.6970437447137916e-19 6.8000000000000799e-05 3.8000000000001595e-05 1.6970437447137916e-19 0.0040000000000000001 0.001 -0.002 0 0 0 0 0 0 0 0 0 0
334 1 2.1836193376953165e-06 1.0918096688476583e-06 5.4516682181677388e-15 6.8000000000000799e-05 3.8000000000001595e-05 8.0000000000001911e-06 6.8000000000000799e-05 3.8000000000001595e-05 8.0000000000001911e-06 0.0040000000000000001 0.001 -0.002 0 0 0 0 0 0 0 0 0 0
335 1 1.9843910569447011e-06 9.9219552847235055e-07 4.0914797467184183e-15 6.8000000000000799e-05 3.8000000000001595e-05 1.5999999999999264e-05 6.8000000000000799e-05 3.8000000000001595e-05 1.5999999999999264e-05 0.0040000000000000001 0.001 -0.002 0 0 0 0 0 0 0 0 0 0
336 1 2.3371409084233939e-06 1.1685704542116969e-06 6.6842596840088944e-15 6.8000000000000799e-05 3.8000000000001595e-05 2.3999999999997907e-05 6.8000000000000799e-05 3.8000000000001595e-05 2.3999999999997907e-05 0.0040000000000000001 0.001 -0.002 0 0 0 0 0 0 0 0 0 0
337 1 2.0346760870891358e-06 1.0173380435445679e-06 4.4104658659075379e-15 6.8000000000000799e-05 3.8000000000001595e-05 3.19999999999968e-05 6.8000000000000799e-05 3.8000000000001595e-05 3.19999999999968e-05 0.0040000000000000001 0.001 -0.002 0 0 0 0 0 0 0 0 0 0
338 1 2.5610154473860505e-06 1.2805077236930252e-06 8.7949872944571219e-15 6.8000000000000799e-05 3.8000000000001595e-05 3.9999999999996798e-05 6.8000000000000799e-05 3.8000000000001595e-05 3.9999999999996798e-05 0.0040000000000000001 0.001 -0.002 0 0 0 0 0 0 0 0 0 0
339 1 2.1666129114218657e-06 1.0833064557109328e-06 5.3252819047826366e-15 6.8000000000000799e-05 3.8000000000001595e-05 4.7999999999996803e-05 6.8000000000000799e-05 3.8000000000001595e-05 4.7999999999996803e-05 0.0040000000000000001 0.001 -0.002 0 0 0 0 0 0 0 0 0 0
340 1 2.5989447394373511e-06 1.2994723697186755e-06 9.1915712551689805e-15 6.8000000000000799e-05 3.8000000000001595e-05 5.5999999999996794e-05 6.8000000000000799e-05 3.8000000000001595e-05 5.5999999999996794e-05 0.0040000000000000001 0.001 -0.002 0 0 0 0 0 0 0 0 0 0
341 1 1.5223148184540431e-06 7.6115740922702155e-07 1.8471920338390925e-15 6.8000000000000799e-05 4.6000000000001599e-05 6.3999999999997463e-05 6.8000000000000799e-05 4.6000000000001599e-05 -1.600000000000253e-05 0.0040000000000000001 0.001 -0.002 0 0 0 0 0 0 0 0 0 -1
342 1 1.1502616884877806e-06 5.7513084424389031e-07 7.9687203749693764e-16 6.8000000000000799e-05 4.6000000000001599e-05 7.1999999999998809e-05 6.8000000000000799e-05 4.6000000000001599e-05 -8.0000000000011838e-06 0.0040000000000000001 0.001 -0.002 0 0 0 0 0 0 0 0 0 -1
343 1 1.9759538653835438e-06 9.8797693269177189e-07 4.0395131260097343e-15 6.8000000000000799e-05 4.6000000000001599e-05 1.6970437447137916e-19 6.8000000000000799e-05 4.6000000000001599e-05 1.6970437447137916e-19 0.0040000000000000001 0.001 -0.002 0 0 0 0 0 0 0 0 0 0
344 1 1.5048819231868721e-06 7.5244096159343607e-07 1.7844562249308233e-15 6.8000000000000799e-05 4.6000000000001599e-05 8.0000000000001911e-06 6.8000000000000799e-05 4.6000000000001599e-05 8.0000000000001911e-06 0.0040000000000000001 0.001 -0.002 0 0 0 0 0 0 0 0 0 0
345 1 1.3931000540781664e-06 6.9655002703908318e-07 1.4156162834262509e-15 6.8000000000000799e-05 4.6000000000001599e-05 1.5999999999999264e-05 6.8000000000000799e-05 4.6000000000001599e-05 1.5999999999999264e-05 0.0040000000000000001 0.001 -0.002 0 0 0 0 0 0 0 0 0 0
346 1 2.3850504359357009e-06 1.1925252179678505e-06 7.1038097908873808e-15 6.8000000000000799e-05 4.6000000000001599e-05 2.3999999999997907e-05 6.8000000000000799e-05 4.6000000000001599e-05 2.3999999999997907e-05 0.0040000000000000001 0.001 -0.002 0 0 0 0 0 0 0 0 0 0
347 1 2.3572050914308814e-06 1.1786025457154407e-06 6.8578934574382161e-15 6.8000000000000799e-05 4.6000000000001599e-05 3.19999999999968e-05 6.8000000000000799e-05 4.6000000000001599e-05 3.19999999999968e-05 0.0040000000000000001 0.001 -0.002 0 0 0 0 0 0 0 0 0 0
348 1 1.6738802619324781e-06 8.3694013096623904e-07 2.4556800789786709e-15 6.8000000000000799e-05 4.6000000000001599e-05 3.9999999999996798e-05 6.8000000000000799e-05 4.6000000000001599e-05 3.9999999999996798e-05 0.0040000000000000001 0.001 -0.002 0 0 0 0 0 0 0 0 0 0
349 1 3.3969477020149904e-06 1.6984738510074952e-06 2.0524151153416512e-14 6.8000000000000799e-05 4.6000000000001599e-05 4.7999999999996803e-05 6.8000000000000799e-05 4.6000000000001599e-05 4.7999999999996803e-05 0.0040000000000000001 0.001 -0.002 0 0 0 0 0 0 0 0 0 0
350 1 1.9532812938722849e-06 9.7664064693614246e-07 3.9020514834496281e-15 6.8000000000000799e-05 4.6000000000001599e-05 5.5999999999996794e-05 6.8000000000000799e-05 4.6000000000001599e-05 5.5999999999996794e-05 0.0040000000000000001 0.001 -0.002 0 0 0 0 0 0 0 0 0 0
351 1 2.0048828202909867e-06 1.0024414101454934e-06 4.2195448320962131e-15 6.8000000000000799e-05 5.4000000000001597e-05 6.3999999999997463e-05 6.8000000000000799e-05 5.4000000000001597e-05 -1.600000000000253e-05 0.0040000000000000001 0.001 -0.002 0 0 0 0 0 0 0 0 0 -1
352 1 1.9268744486798953e-06 9.6343722433994767e-07 3.7459232572710116e-15 6.8000000000000799e-05 5.4000000000001597e-05 7.1999999999998809e-05 6.8000000000000799e-05 5.4000000000001597e-05 -8.0000000000011838e-06 0.0040000000000000001 0.001 -0.002 0 0 0 0 0 0 0 0 0 -1
353 1 1.51677370474824e-06 7.5838685237412002e-07 1.8270944369953442e-15 6.8000000000000799e-05 5.4000000000001597e-05 1.6970437447137916e-19 6.8000000000000799e-05 5.4000000000001597e-05 1.6970437447137916e-19 0.0040000000000000001 0.001 -0.002 0 0 0 0 0 0 0 0 0 0
354 1 2.2762562427769749e-06 1.1381281213884874e-06 6.1753570363956093e-15 6.8000000000000799e-05 5.4000000000001597e-05 8.0000000000001911e-06 6.8000000000000799e-05 5.4000000000001597e-05 8.0000000000001911e-06 0.0040000000000000001 0.001 -0.002 0 0 0 0 0 0 0 0 0 0
355 1 1.7444610015106798e-06 8.7223050075533992e-07 2.7796007310845854e-15 6.8000000000000799e-05 5.4000000000001597e-05 1.5999999999999264e-05 6.8000000000000799e-05 5.4000000000001597e-05 1.5999999999999264e-05 0.0040000000000000001 0.001 -0.002 0 0 0 0 0 0 0 0 0 0
356 1 2.7585271989088364e-06 1.3792635994544182e-06 1.0990828560282062e-14 6.8000000000000799e-05 5.4000000000001597e-05 2.3999999999997907e-05 6.8000000000000799e-05 5.4000000000001597e-05 2.3999999999997907e-05 0.0040000000000000001 0.001 -0.002 0 0 0 0 0 0 0 0 0 0
357 1 2.236722770822698e-06 1.118361385411349e-06 5.859156516706188e-15 6.8000000000000799e-05 5.4000000000001597e-05 3.19999999999968e-05 6.8000000000000799e-05 5.4000000000001597e-05 3.19999999999968e-05 0.0040000000000000001 0.001 -0.002 0 0 0 0 0 0 0 0 0 0
358 1 2.8804099422358706e-06 1.4402049711179353e-06 1.2513002351890853e-14 6.8000000000000799e-05 5.4000000000001597e-05 3.9999999999996798e-05 6.8000000000000799e-05 5.4000000000001597e-05 3.9999999999996798e-05 0.0040000000000000001 0.001 -0.002 0 0 0 0 0 0 0 0 0 0
359 1 1.9907472733530621e-06 9.9537363667653104e-07 4.1309221549125793e-15 6.8000000000000799e-05 5.4000000000001597e-05 4.7999999999996803e-05 6.8000000000000799e-05 5.4000000000001597e-05 4.7999999999996803e-05 0.0040000000000000001 0.001 -0.002 0 0 0 0 0 0 0 0 0 0
360 1 2.0097540484232733e-06 1.0048770242116367e-06 4.2503760801460412e-15 6.8000000000000799e-05 5.4000000000001597e-05 5.5999999999996794e-05 6.8000000000000799e-05 5.4000000000001597e-05 5.5999999999996794e-05 0.0040000000000000001 0.001 -0.002 0 0 0 0 0 0 0 0 0 0
361 1 1.5637330642722114e-06 7.8186653213610572e-07 2.0021032925401827e-15 6.8000000000000799e-05 6.2000000000000938e-05 6.3999999999997463e-05 6.8000000000000799e-05 6.2000000000000938e-05 -1.600000000000253e-05 0.0040000000000000001 0.001 -0.002 0 0 0 0 0 0 0 0 0 -1
362 1 1.8243255053269212e-06 9.1216275266346059e-07 3.1791104164968269e-15 6.8000000000000799e-05 6.2000000000000938e-05 7.1999999999998809e-05 6.8000000000000799e-05 6.2000000000000938e-05 -8.0000000000011838e-06 0.0040000000000000001 0.001 -0.002 0 0 0 0 0 0 0 0 0 -1
363 1 2.7253682507706975e-06 1.3626841253853488e-06 1.0599227141372194e-14 6.8000000000000799e-05 6.2000000000000938e-05 1.6970437447137916e-19 6.8000000000000799e-05 6.2000000000000938e-05 1.6970437447137916e-19 0.0040000000000000001 0.001 -0.002 0 0 0 0 0 0 0 0 0 0
364 1 2.7133128637353657e-06 1.3566564318676829e-06 1.0459194607918133e-14 6.8000000000000799e-05 6.2000000000000938e-05 8.0000000000001911e-06 6.8000000000000799e-05 6.2000000000000938e-05 8.0000000000001911e-06 0.0040000000000000001 0.001 -0.002 0 0 0 0 0 0 0 0 0 0
365 1 1.644677784837709e-06 8.223388924188545e-07 2.3293840706687955e-15 6.8000000000000799e-05 6.2000000000000938e-05 1.5999999999999264e-05 6.8000000000000799e-05 6.2000000000000938e-05 1.5999999999999264e-05 0.0040000000000000001 0.001 -0.002 0 0 0 0 0 0 0 0 0 0
366 1 1.2054372067783045e-06 6.0271860338915224e-07 9.1713316573701972e-16 6.8000000000000799e-05 6.2000000000000938e-05 2.3999999999997907e-05 6.8000000000000799e-05 6.2000000000000938e-05 2.3999999999997907e-05 0.0040000000000000001 0.001 -0.002 0 0 0 0 0 0 0 0 0 0
367 1 1.654338071419165e-06 8.2716903570958248e-07 2.3706716996291932e-15 6.8000000000000799e-05 6.2000000000000938e-05 3.19999999999968e-05 6.8000000000000799e-05 6.2000000000000938e-05 3.19999999999968e-05 0.0040000000000000001 0.001 -0.002 0 0 0 0 0 0 0 0 0 0
368 1 1.587610617711302e-06 7.9380530885565099e-07 2.0952247063786485e-15 6.8000000000000799e-05 6.2000000000000938e-05 3.9999999999996798e-05 6.8000000000000799e-05 6.2000000000000938e-05 3.9999999999996798e-05 0.0040000000000000001 0.001 -0.002 0 0 0 0 0 0 0 0 0 0
369 1 1.3852464983780187e-06 6.9262324918900936e-07 1.3918095284446177e-15 6.8000000000000799e-05 6.2000000000000938e-05 4.7999999999996803e-05 6.8000000000000799e-05 6.2000000000000938e-05 4.7999999999996803e-05 0.0040000000000000001 0.001 -0.002 0 0 0 0 0 0 0 0 0 0
370 1 1.3766740898478482e-06 6.8833704492392412e-07 1.366130031312953e-15 6.8000000000000799e-05 6.2000000000000938e-05 5.5999999999996794e-05 6.8000000000000799e-05 6.2000000000000938e-05 5.5999999999996794e-05 0.0040000000000000001 0.001 -0.002 0 0 0 0 0 0 0 0 0 0
371 1 1.6668538472058189e-06 8.3342692360290945e-07 2.4248852264525646e-15 6.8000000000000799e-05 6.9999999999995522e-05 6.3999999999997463e-05 6.8000000000000799e-05 6.9999999999995522e-05 -1.600000000000253e-05 0.0040000000000000001 0.001 -0.002 0 0 0 0 0 0 0 0 0 -1
372 1 1.6802095535115321e-06 8.4010477675576607e-07 2.4836418632225074e-15 6.8000000000000799e-05 6.9999999999995522e-05 7.1999999999998809e-05 6.8000000000000799e-05 6.9999999999995522e-05 -8.0000000000011838e-06 0.0040000000000000001 0.001 -0.002 0 0 0 0 0 0 0 0 0 -1
373 1 2.0213758884911385e-06 1.0106879442455693e-06 4.3245394709651516e-15 6.8000000000000799e-05 6.9999999999995522e-05 1.6970437447137916e-19 6.8000000000000799e-05 6.9999999999995522e-05 1.6970437447137916e-19 0.0040000000000000001 0.001 -0.002 0 0 0 0 0 0 0 0 0 0
374 1 2.5784423389582333e-06 1.2892211694791167e-06 8.9757530188002288e-15 6.8000000000000799e-05 6.9999999999995522e-05 8.0000000000001911e-06 6.8000000000000799e-05 6.9999999999995522e-05 8.0000000000001911e-06 0.0040000000000000001 0.001 -0.002 0 0 0 0 0 0 0 0 0 0
375 1 1.7076912502719691e-06 8.5384562513598457e-07 2.6075141987829068e-15 6.8000000000000799e-05 6.9999999999995522e-05 1.5999999999999264e-05 6.8000000000000799e-05 6.9999999999995522e-05 1.5999999999999264e-05 0.0040000000000000001 0.001 -0.002 0 0 0 0 0 0 0 0 0 0
376 1 3.6256844482539538e-06 1.8128422241269769e-06 2.4955635489288135e-14 6.8000000000000799e-05 6.9999999999995522e-05 2.3999999999997907e-05 6.8000000000000799e-05 6.9999999999995522e-05 2.3999999999997907e-05 0.0040000000000000001 0.001 -0.002 0 0 0 0 0 0 0 0 0 0
377 1 1.5918490448678428e-06 7.9592452243392141e-07 2.1120503430087084e-15 6.8000000000000799e-05 6.9999999999995522e-05 3.19999999999968e-05 6.8000000000000799e-05 6.9999999999995522e-05 3.19999999999968e-05 0.0040000000000000001 0.001 -0.002 0 0 0 0 0 0 0 0 0 0
378 1 2.6379678408455941e-06 1.318983920422797e-06 9.6118528338103832e-15 6.8000000000000799e-05 6.9999999999995522e-05 3.9999999999996798e-05 6.8000000000000799e-05 6.9999999999995522e-05 3.9999999999996798e-05 0.0040000000000000001 0.001 -0.002 0 0 0 0 0 0 0 0 0 0
379 1 3.3183331370203634e-06 1.6591665685101817e-06 1.9131920791141418e-14 6.8000000000000799e-05 6.9999999999995522e-05 4.7999999999996803e-05 6.8000000000000799e-05 6.9999999999995522e-05 4.7999999999996803e-05 0.0040000000000000001 0.001 -0.002 0 0 0 0 0 0 0 0 0 0
380 1 1.4538046641675382e-06 7.2690233208376909e-07 1.608854597345066e-15 6.8000000000000799e-05 6.9999999999995522e-05 5.5999999999996794e-05 6.8000000000000799e-05 6.9999999999995522e-05 5.5999999999996794e-05 0.0040000000000000001 0.001 -0.002 0 0 0 0 0 0 0 0 0 0
381 1 2.0814200842581935e-06 1.0407100421290968e-06 4.7214766362876949e-15 6.8000000000000799e-05 7.7999999999994822e-05 6.3999999999997463e-05 6.8000000000000799e-05 7.7999999999994822e-05 -1.600000000000253e-05 0.0040000000000000001 0.001 -0.002 0 0 0 0 0 0 0 0 0 -1
382 1 3.9225944399323641e-06 1.961297219966182e-06 3.160231135364871e-14 6.8000000000000799e-05 7.7999999999994822e-05 7.1999999999998809e-05 6.8000000000000799e-05 7.7999999999994822e-05 -8.0000000000011838e-06 0.0040000000000000001 0.001 -0.002 0 0 0 0 0 0 0 0 0 -1
383 1 1.6088193619828566e-06 8.0440968099142829e-07 2.1803211881727154e-15 6.8000000000000799e-05 7.7999999999994822e-05 1.6970437447137916e-19 6.8000000000000799e-05 7.7999999999994822e-05 1.6970437447137916e-19 0.0040000000000000001 0.001 -0.002 0 0 0 0 0 0 0 0 0 0
384 1 2.1070094811054902e-06 1.0535047405527451e-06 4.8977666744643529e-15 6.8000000000000799e-05 7.7999999999994822e-05 8.0000000000001911e-06 6.8000000000000799e-05 7.7999999999994822e-05 8.0000000000001911e-06 0.0040000000000000001 0.001 -0.002 0 0 0 0 0 0 0 0 0 0
385 1 1.6475912898908834e-06 8.2379564494544169e-07 2.3417853480020794e-15 6.8000000000000799e-05 7.7999999999994822e-05 1.5999999999999264e-05 6.8000000000000799e-05 7.7999999999994822e-05 1.5999999999999264e-05 0.0040000000000000001 0.001 -0.002 0 0 0 0 0 0 0 0 0 0
386 1 1.9651678416122807e-06 9.8258392080614035e-07 3.973722800312152e-15 6.8000000000000799e-05 7.7999999999994822e-05 2.3999999999997907e-05 6.8000000000000799e-05 7.7999999999994822e-05 2.3999999999997907e-05 0.0040000000000000001 0.001 -0.002 0 0 0 0 0 0 0 0 0 0
387 1 1.7752453821234521e-06 8.8762269106172607e-07 2.9293670830639841e-15 6.8000000000000799e-05 7.7999999999994822e-05 3.19999999999968e-05 6.8000000000000799e-05 7.7999999999994822e-05 3.19999999999968e-05 0.0040000000000000001 0.001 -0.002 0 0 0 0 0 0 0 0 0 0
388 1 2.7882754318018204e-06 1.3941377159009102e-06 1.1350255518995523e-14 6.8000000000000799e-05 7.7999999999994822e-05 3.9999999999996798e-05 6.8000000000000799e-05 7.7999999999994822e-05 3.9999999999996798e-05 0.0040000000000000001 0.001 -0.002 0 0 0 0 0 0 0 0 0 0
389 1 1.1618511931630752e-06 5.8092559658153758e-07 8.2120228151251516e-16 6.8000000000000799e-05 7.7999999999994822e-05 4.7999999999996803e-05 6.8000000000000799e-05 7.7999999999994822e-05 4.7999999999996803e-05 0.0040000000000000001 0.001 -0.002 0 0 0 0 0 0 0 0 0 0
390 1 2.2069104416671622e-06 1.1034552208335811e-06 5.6279826605564726e-15 6.8000000000000799e-05 7.7999999999994822e-05 5.5999999999996794e-05 6.8000000000000799e-05 7.7999999999994822e-05 5.5999999999996794e-05 0.0040000000000000001 0.001 -0.002 0 0 0 0 0 0 0 0 0 0
391 1 1.7663897982149969e-06 8.8319489910749843e-07 2.8857470852761859e-15 6.8000000000000799e-05 5.9999999999978741e-06 6.3999999999997463e-05 6.8000000000000799e-05 8.5999999999997862e-05 -1.600000000000253e-05 0.0040000000000000001 0.001 -0.002 0 0 0 0 0 0 0 0 1 -1
392 1 1.4608488701766395e-06 7.3042443508831975e-07 1.6323545320026656e-15 6.8000000000000799e-05 5.9999999999978741e-06 7.1999999999998809e-05 6.8000000000000799e-05 8.5999999999997862e-05 -8.0000000000011838e-06 0.0040000000000000001 0.001 -0.002 0 0 0 0 0 0 0 0 1 -1
393 1 3.494501768998968e-06 1.747250884499484e-06 2.2343665254855714e-14 6.8000000000000799e-05 5.9999999999978741e-06 1.6970437447137916e-19 6.8000000000000799e-05 8.5999999999997862e-05 1.6970437447137916e-19 0.0040000000000000001 0.001 -0.002 0 0 0 0 0 0 0 0 1 0
394 1 1.9873330925978166e-06 9.9366654629890829e-07 4.1097046843886419e-15 6.8000000000000799e-05 5.9999999999978741e-06 8.0000000000001911e-06 6.8000000000000799e-05 8.5999999999997862e-05 8.0000000000001911e-06 0.0040000000000000001 0.001 -0.002 0 0 0 0 0 0 0 0 1 0
395 1 1.6980285708551807e-06 8.4901428542759037e-07 2.5635016564451285e-15 6.8000000000000799e-05 5.9999999999978741e-06 1.5999999999999264e-05 6.8000000000000799e-05 8.5999999999997862e-05 1.5999999999999264e-05 0.0040000000000000001 0.001 -0.002 0 0 0 0 0 0 0 0 1 0
396 1 1.6969201145790401e-06 8.4846005728952005e-07 2.5584846472558326e-15 6.8000000000000799e-05 5.9999999999978741e-06 2.3999999999997907e-05 6.8000000000000799e-05 8.5999999999997862e-05 2.3999999999997907e-05 0.0040000000000000001 0.001 -0.002 0 0 0 0 0 0 0 0 1 0
397 1 1.472300611894048e-06 7.36150305947024e-07 1.6710448259918103e-15 6.8000000000000799e-05 5.9999999999978741e-06 3.19999999999968e-05 6.8000000000000799e-05 8.5999999999997862e-05 3.19999999999968e-05 0.0040000000000000001 0.001 -0.002 0 0 0 0 0 0 0 0 1 0
398 1 2.2731703361381533e-06 1.1365851680690766e-06 6.1502753891137955e-15 6.8000000000000799e-05 5.9999999999978741e-06 3.9999999999996798e-05 6.8000000000000799e-05 8.5999999999997862e-05 3.9999999999996798e-05 0.0040000000000000001 0.001 -0.002 0 0 0 0 0 0 0 0 1 0
399 1 1.269177873973363e-06 6.3458893698668149e-07 1.0704492917761584e-15 6.8000000000000799e-05 5.9999999999978741e-06 4.7999999999996803e-05 6.8000000000000799e-05 8.5999999999997862e-05 4.7999999999996803e-05 0.0040000000000000001 0.001 -0.002 0 0 0 0 0 0 0 0 1 0
400 1 1.4510245026988214e-06 7.2551225134941068e-07 1.5996422303334129e-15 6.8000000000000799e-05 5.9999999999978741e-06 5.5999999999996794e-05 6.8000000000000799e-05 8.5999999999997862e-05 5.5999999999996794e-05 0.0040000000000000001 0.001 -0.002 0 0 0 0 0 0 0 0 1 0
401 1 1.9165492647599243e-06 9.5827463237996213e-07 3.6860276106864937e-15 7.6000000000002159e-05 1.3999999999999905e-05 6.3999999999997463e-05 7.6000000000002159e-05 1.3999999999999905e-05 -1.600000000000253e-05 0.0040000000000000001 0.001 -0.002 0 0 0 0 0 0 0 0 0 -1
402 1 1.4002312679130854e-06 7.001156339565427e-07 1.4374671764527566e-15 7.6000000000002159e-05 1.3999999999999905e-05 7.1999999999998809e-05 7.6000000000002159e-05 1.3999999999999905e-05 -8.0000000000011838e-06 0.0040000000000000001 0.001 -0.002 0 0 0 0 0 0 0 0 0 -1
403 1 1.9786354175771264e-06 9.8931770878856318e-07 4.0559814338599388e-15 7.6000000000002159e-05 1.3999999999999905e-05 1.6970437447137916e-19 7.6000000000002159e-05 1.3999999999999905e-05 1.6970437447137916e-19 0.0040000000000000001 0.001 -0.002 0 0 0 0 0 0 0 0 0 0
404 1 3.5113655220316998e-06 1.7556827610158499e-06 2.2668706722828371e-14 7.6000000000002159e-05 1.3999999999999905e-05 8.0000000000001911e-06 7.6000000000002159e-05 1.3999999999999905e-05 8.0000000000001911e-06 0.0040000000000000001 0.001 -0.002 0 0 0 0 0 0 0 0 0 0
405 1 1.4471001168238487e-06 7.2355005841192434e-07 1.5866983059412136e-15 7.6000000000002159e-05 1.3999999999999905e-05 1.5999999999999264e-05 7.6000000000002159e-05 1.3999999999999905e-05 1.5999999999999264e-05 0.0040000000000000001 0.001 -0.002 0 0 0 0 0 0 0 0 0 0
406 1 2.6581487113372269e-06 1.3290743556686134e-06 9.8341413112943407e-15 7.6000000000002159e-05 1.3999999999999905e-05 2.3999999999997907e-05 7.6000000000002159e-05 1.3999999999999905e-05 2.3999999999997907e-05 0.0040000000000000001 0.001 -0.002 0 0 0 0 0 0 0 0 0 0
407 1 1.4109341401476269e-06 7.0546707007381346e-07 1.4706822428847484e-15 7.6000000000002159e-05 1.3999999999999905e-05 3.19999999999968e-05 7.6000000000002159e-05 1.3999999999999905e-05 3.19999999999968e-05 0.0040000000000000001 0.001 -0.002 0 0 0 0 0 0 0 0 0 0
408 1 2.3220141119390245e-06 1.1610070559695123e-06 6.5553092830561005e-15 7.6000000000002159e-05 1.3999999999999905e-05 3.9999999999996798e-05 7.6000000000002159e-05 1.3999999999999905e-05 3.9999999999996798e-05 0.0040000000000000001 0.001 -0.002 0 0 0 0 0 0 0 0 0 0
409 1 1.8390407843610982e-06 9.1952039218054911e-07 3.2566621326192974e-15 7.6000000000002159e-05 1.3999999999999905e-05 4.7999999999996803e-05 7.6000000000002159e-05 1.3999999999999905e-05 4.7999999999996803e-05 0.0040000000000000001 0.001 -0.002 0 0 0 0 0 0 0 0 0 0
410 1 2.608383911608376e-06 1.304191955804188e-06 9.2920847203763822e-15 7.6000000000002159e-05 1.3999999999999905e-05 5.5999999999996794e-05 7.6000000000002159e-05 1.3999999999999905e-05 5.5999999999996794e-05 0.0040000000000000001 0.001 -0.002 0 0 0 0 0 0 0 0 0 0
411 1 1.2913509171747003e-06 6.4567545858735015e-07 1.1275386776682755e-15 7.6000000000002159e-05 2.2000000000001046e-05 6.3999999999997463e-05 7.6000000000002159e-05 2.2000000000001046e-05 -1.600000000000253e-05 0.0040000000000000001 0.001 -0.002 0 0 0 0 0 0 0 0 0 -1
412 1 1.8821525391489493e-06 9.4107626957447466e-07 3.4911063269875815e-15 7.6000000000002159e-05 2.2000000000001046e-05 7.1999999999998809e-05 7.6000000000002159e-05 2.2000000000001046e-05 -8.0000000000011838e-06 0.0040000000000000001 0.001 -0.002 0 0 0 0 0 0 0 0 0 -1
413 1 3.4721965717055597e-06 1.7360982858527799e-06 2.1918535550745738e-14 7.6000000000002159e-05 2.2000000000001046e-05 1.6970437447137916e-19 7.6000000000002159e-05 2.2000000000001046e-05 1.6970437447137916e-19 0.0040000000000000001 0.001 -0.002 0 0 0 0 0 0 0 0 0 0
414 1 1.3726931670526745e-06 6.8634658352633727e-07 1.354312970875094e-15 7.6000000000002159e-05 2.2000000000001046e-05 8.0000000000001911e-06 7.6000000000002159e-05 2.2000000000001046e-05 8.0000000000001911e-06 0.0040000000000000001 0.001 -0.002 0 0 0 0 0 0 0 0 0 0
415 1 2.0007340288666574e-06 1.0003670144333287e-06 4.1934039370685218e-15 7.6000000000002159e-05 2.2000000000001046e-05 1.5999999999999264e-05 7.6000000000002159e-05 2.2000000000001046e-05 1.5999999999999264e-05 0.0040000000000000001 0.001 -0.002 0 0 0 0 0 0 0 0 0 0
416 1 1.1822168241842342e-06 5.9110841209211712e-07 8.6514724447798517e-16 7.6000000000002159e-05 2.2000000000001046e-05 2.3999999999997907e-05 7.6000000000002159e-05 2.2000000000001046e-05 2.3999999999997907e-05 0.0040000000000000001 0.001 -0.002 0 0 0 0 0 0 0 0 0 0
417 1 1.8764843737191353e-06 9.3824218685956766e-07 3.4596604666636771e-15 7.6000000000002159e-05 2.2000000000001046e-05 3.19999999999968e-05 7.6000000000002159e-05 2.2000000000001046e-05 3.19999999999968e-05 0.0040000000000000001 0.001 -0.002 0 0 0 0 0 0 0 0 0 0
418 1 1.6318313444676805e-06 8.1591567223384027e-07 2.2752254392615533e-15 7.6000000000002159e-05 2.2000000000001046e-05 3.9999999999996798e-05 7.6000000000002159e-05 2.2000000000001046e-05 3.9999999999996798e-05 0.0040000000000000001 0.001 -0.002 0 0 0 0 0 0 0 0 0 0
419 1 2.7666058765690076e-06 1.3833029382845038e-06 1.1087675513092824e-14 7.6000000000002159e-05 2.2000000000001046e-05 4.7999999999996803e-05 7.6000000000002159e-05 2.2000000000001046e-05 4.7999999999996803e-05 0.0040000000000000001 0.001 -0.002 0 0 0 0 0 0 0 0 0 0
420 1 1.7464762537694986e-06 8.7323812688474929e-07 2.7892450916066302e-15 7.6000000000002159e-05 2.2000000000001046e-05 5.5999999999996794e-05 7.6000000000002159e-05 2.2000000000001046e-05 5.5999999999996794e-05 0.0040000000000000001 0.001 -0.002 0 0 0 0 0 0 0 0 0 0
421 1 1.8919082175398911e-06 9.4595410876994553e-07 3.5456740839853272e-15 7.6000000000002159e-05 3.0000000000001597e-05 6.3999999999997463e-05 7.6000000000002159e-05 3.0000000000001597e-05 -1.600000000000253e-05 0.0040000000000000001 0.001 -0.002 0 0 0 0 0 0 0 0 0 -1
422 1 1.6200953291126804e-06 8.1004766455634021e-07 2.2264878628795845e-15 7.6000000000002159e-05 3.0000000000001597e-05 7.1999999999998809e-05 7.6000000000002159e-05 3.0000000000001597e-05 -8.0000000000011838e-06 0.0040000000000000001 0.001 -0.002 0 0 0 0 0 0 0 0 0 -1
423 1 1.2766642554730686e-06 6.3833212773653428e-07 1.0895037247852778e-15 7.6000000000002159e-05 3.0000000000001597e-05 1.6970437447137916e-19 7.6000000000002159e-05 3.0000000000001597e-05 1.6970437447137916e-19 0.0040000000000000001 0.001 -0.002 0 0 0 0 0 0 0 0 0 0
424 1 2.2093382996752368e-06 1.1046691498376184e-06 5.6465774072453987e-15 7.6000000000002159e-05 3.0000000000001597e-05 8.0000000000001911e-06 7.6000000000002159e-05 3.0000000000001597e-05 8.0000000000001911e-06 0.0040000000000000001 0.001 -0.002 0 0 0 0 0 0 0 0 0 0
425 1 1.3654347152875568e-06 6.827173576437784e-07 1.3329425855205804e-15 7.6000000000002159e-05 3.0000000000001597e-05 1.5999999999999264e-05 7.6000000000002159e-05 3.0000000000001597e-05 1.5999999999999264e-05 0.0040000000000000001 0.001 -0.002 0 0 0 0 0 0 0 0 0 0
426 1 2.2525566851797664e-06 1.1262783425898832e-06 5.9844715748657119e-15 7.6000000000002159e-05 3.0000000000001597e-05 2.3999999999997907e-05 7.6000000000002159e-05 3.0000000000001597e-05 2.3999999999997907e-05 0.0040000000000000001 0.001 -0.002 0 0 0 0 0 0 0 0 0 0
427 1 2.7945065357302675e-06 1.3972532678651338e-06 1.1426520715754185e-14 7.6000000000002159e-05 3.0000000000001597e-05 3.19999999999968e-05 7.6000000000002159e-05 3.0000000000001597e-05 3.19999999999968e-05 0.0040000000000000001 0.001 -0.002 0 0 0 0 0 0 0 0 0 0
428 1 1.4324846363928183e-06 7.1624231819640916e-07 1.539106033548139e-15 7.6000000000002159e-05 3.0000000000001597e-05 3.9999999999996798e-05 7.6000000000002159e-05 3.0000000000001597e-05 3.9999999999996798e-05 0.0040000000000000001 0.001 -0.002 0 0 0 0 0 0 0 0 0 0
429 1 1.6526790969722759e-06 8.2633954848613796e-07 2.3635469022520201e-15 7.6000000000002159e-05 3.0000000000001597e-05 4.7999999999996803e-05 7.6000000000002159e-05 3.0000000000001597e-05 4.7999999999996803e-05 0.0040000000000000001 0.001 -0.002 0 0 0 0 0 0 0 0 0 0
430 1 1.8208315557990792e-06 9.1041577789953962e-07 3.1608794733257385e-15 7.6000000000002159e-05 3.0000000000001597e-05 5.5999999999996794e-05 7.6000000000002159e-05 3.0000000000001597e-05 5.5999999999996794e-05 0.0040000000000000001 0.001 -0.002 0 0 0 0 0 0 0 0 0 0
431 1 2.159864027260925e-06 1.0799320136304625e-06 5.2756728447696411e-15 7.6000000000002159e-05 3.8000000000001595e-05 6.3999999999997463e-05 7.6000000000002159e-05 3.8000000000001595e-05 -1.600000000000253e-05 0.0040000000000000001 0.001 -0.002 0 0 0 0 0 0 0 0 0 -1
432 1 1.4519646823523189e-06 7.2598234117615947e-07 1.6027536714396907e-15 7.6000000000002159e-05 3.8000000000001595e-05 7.1999999999998809e-05 7.6000000000002159e-05 3.8000000000001595e-05 -8.0000000000011838e-06 0.0040000000000000001 0.001 -0.002 0 0 0 0 0 0 0 0 0 -1
433 1 1.9680875086590639e-06 9.8404375432953195e-07 3.9914605114405431e-15 7.6000000000002159e-05 3.8000000000001595e-05 1.6970437447137916e-19 7.6000000000002159e-05 3.8000000000001595e-05 1.6970437447137916e-19 0.0040000000000000001 0.001 -0.002 0 0 0 0 0 0 0 0 0 0
434 1 2.1933903046410113e-06 1.0966951523205056e-06 5.5251793581898826e-15 7.6000000000002159e-05 3.8000000000001595e-05 8.0000000000001911e-06 7.6000000000002159e-05 3.8000000000001595e-05 8.0000000000001911e-06 0.0040000000000000001 0.001 -0.002 0 0 0 0 0 0 0 0 0 0
435 1 1.7550078773160926e-06 8.775039386580463e-07 2.8303219058660122e-15 7.6000000000002159e-05 3.8000000000001595e-05 1.5999999999999264e-05 7.6000000000002159e-05 3.8000000000001595e-05 1.5999999999999264e-05 0.0040000000000000001 0.001 -0.002 0 0 0 0 0 0 0 0 0 0
436 1 1.4084472688127473e-06 7.0422363440637363e-07 1.4629193967518704e-15 7.6000000000002159e-05 3.8000000000001595e-05 2.3999999999997907e-05 7.6000000000002159e-05 3.8000000000001595e-05 2.3999999999997907e-05 0.0040000000000000001 0.001 -0.002 0 0 0 0 0 0 0 0 0 0
437 1 1.4753007809445368e-06 7.3765039047226838e-07 1.6812811321892511e-15 7.6000000000002159e-05 3.8000000000001595e-05 3.19999999999968e-05 7.6000000000002159e-05 3.8000000000001595e-05 3.19999999999968e-05 0.0040000000000000001 0.001 -0.002 0 0 0 0 0 0 0 0 0 0
438 1 1.3648743036391432e-06 6.8243715181957161e-07 1.3313020310566774e-15 7.6000000000002159e-05 3.8000000000001595e-05 3.9999999999996798e-05 7.6000000000002159e-05 3.8000000000001595e-05 3.9999999999996798e-05 0.0040000000000000001 0.001 -0.002 0 0 0 0 0 0 0 0 0 0
439 1 2.3193430072742191e-06 1.1596715036371095e-06 6.5327128020676114e-15 7.6000000000002159e-05 3.8000000000001595e-05 4.7999999999996803e-05 7.6000000000002159e-05 3.8000000000001595e-05 4.7999999999996803e-05 0.0040000000000000001 0.001 -0.002 0 0 0 0 0 0 0 0 0 0
440 1 1.4756292046306308e-06 7.378146023153154e-07 1.6824042160067176e-15 7.6000000000002159e-05 3.8000000000001595e-05 5.5999999999996794e-05 7.6000000000002159e-05 3.8000000000001595e-05 5.5999999999996794e-05 0.0040000000000000001 0.001 -0.002 0 0 0 0 0 0 0 0 0 0
441 1 2.42586467786996e-06 1.21293233893498e-06 7.4747786268798703e-15 7.6000000000002159e-05 4.6000000000001599e-05 6.3999999999997463e-05 7.6000000000002159e-05 4.6000000000001599e-05 -1.600000000000253e-05 0.0040000000000000001 0.001 -0.002 0 0 0 0 0 0 0 0 0 -1
442 1 3.722063571763532e-06 1.861031785881766e-06 2.6999143164342277e-14 7.6000000000002159e-05 4.6000000000001599e-05 7.1999999999998809e-05 7.6000000000002159e-05 4.6000000000001599e-05 -8.0000000000011838e-06 0.0040000000000000001 0.001 -0.002 0 0 0 0 0 0 0 0 0 -1
443 1 1.8431328914326998e-06 9.2156644571634988e-07 3.2784500435349846e-15 7.6000000000002159e-05 4.6000000000001599e-05 1.6970437447137916e-19 7.6000000000002159e-05 4.6000000000001599e-05 1.6970437447137916e-19 0.0040000000000000001 0.001 -0.002 0 0 0 0 0 0 0 0 0 0
444 1 2.0050019970024939e-06 1.0025009985012469e-06 4.2202973469538697e-15 7.6000000000002159e-05 4.6000000000001599e-05 8.0000000000001911e-06 7.6000000000002159e-05 4.6000000000001599e-05 8.0000000000001911e-06 0.0040000000000000001 0.001 -0.002 0 0 0 0 0 0 0 0 0 0
445 1 1.3938308531873638e-06 6.969154265936819e-07 1.4178452846599905e-15 7.6000000000002159e-05 4.6000000000001599e-05 1.5999999999999264e-05 7.6000000000002159e-05 4.6000000000001599e-05 1.5999999999999264e-05 0.0040000000000000001 0.001 -0.002 0 0 0 0 0 0 0 0 0 0
446 1 3.0305879688840273e-06 1.5152939844420137e-06 1.4574018171919793e-14 7.6000000000002159e-05 4.6000000000001599e-05 2.3999999999997907e-05 7.6000000000002159e-05 4.6000000000001599e-05 2.3999999999997907e-05 0.0040000000000000001 0.001 -0.002 0 0 0 0 0 0 0 0 0 0
447 1 1.3631093378046557e-06 6.8155466890232784e-07 1.3261440496457791e-15 7.6000000000002159e-05 4.6000000000001599e-05 3.19999999999968e-05 7.6000000000002159e-05 4.6000000000001599e-05 3.19999999999968e-05 0.0040000000000000001 0.001 -0.002 0 0 0 0 0 0 0 0 0 0
448 1 1.3257465861984408e-06 6.6287329309922042e-07 1.2200571509968098e-15 7.6000000000002159e-05 4.6000000000001599e-05 3.9999999999996798e-05 7.6000000000002159e-05 4.6000000000001599e-05 3.9999999999996798e-05 0.0040000000000000001 0.001 -0.002 0 0 0 0 0 0 0 0 0 0
449 1 2.203412620604006e-06 1.101706310302003e-06 5.6012650034379123e-15 7.6000000000002159e-05 4.6000000000001599e-05 4.7999999999996803e-05 7.6000000000002159e-05 4.6000000000001599e-05 4.7999999999996803e-05 0.0040000000000000001 0.001 -0.002 0 0 0 0 0 0 0 0 0 0
450 1 1.4373315642819918e-06 7.186657821409959e-07 1.5547820251817035e-15 7.6000000000002159e-05 4.6000000000001599e-05 5.5999999999996794e-05 7.6000000000002159e-05 4.6000000000001599e-05 5.5999999999996794e-05 0.0040000000000000001 0.001 -0.002 0 0 0 0 0 0 0 0 0 0
451 1 2.1731329682966891e-06 1.0865664841483446e-06 5.3735033470418328e-15 7.6000000000002159e-05 5.4000000000001597e-05 6.3999999999997463e-05 7.6000000000002159e-05 5.4000000000001597e-05 -1.600000000000253e-05 0.0040000000000000001 0.001 -0.002 0 0 0 0 0 0 0 0 0 -1
452 1 1.2517995626996529e-06 6.2589978134982647e-07 1.0270770116488168e-15 7.6000000000002159e-05 5.4000000000001597e-05 7.1999999999998809e-05 7.6000000000002159e-05 5.4000000000001597e-05 -8.0000000000011838e-06 0.0040000000000000001 0.001 -0.002 0 0 0 0 0 0 0 0 0 -1
453 1 1.3869633161087526e-06 6.934816580543763e-07 1.3969907996409589e-15 7.6000000000002159e-05 5.4000000000001597e-05 1.6970437447137916e-19 7.6000000000002159e-05 5.4000000000001597e-05 1.6970437447137916e-19 0.0040000000000000001 0.001 -0.002 0 0 0 0 0 0 0 0 0 0
454 1 1.5338775700292927e-06 7.6693878501464636e-07 1.8896036216909473e-15 7.6000000000002159e-05 5.4000000000001597e-05 8.0000000000001911e-06 7.6000000000002159e-05 5.4000000000001597e-05 8.0000000000001911e-06 0.0040000000000000001 0.001 -0.002 0 0 0 0 0 0 0 0 0 0
455 1 1.4816059966199564e-06 7.408029983099782e-07 1.7029300282833111e-15 7.6000000000002159e-05 5.4000000000001597e-05 1.5999999999999264e-05 7.6000000000002159e-05 5.4000000000001597e-05 1.5999999999999264e-05 0.0040000000000000001 0.001 -0.002 0 0 0 0 0 0 0 0 0 0
456 1 1.3608542882192087e-06 6.8042714410960434e-07 1.3195732429839223e-15 7.6000000000002159e-05 5.4000000000001597e-05 2.3999999999997907e-05 7.6000000000002159e-05 5.4000000000001597e-05 2.3999999999997907e-05 0.0040000000000000001 0.001 -0.002 0 0 0 0 0 0 0 0 0 0
457 1 1.7297808734530713e-06 8.6489043672653563e-07 2.7100162463900862e-15 7.6000000000002159e-05 5.4000000000001597e-05 3.19999999999968e-05 7.6000000000002159e-05 5.4000000000001597e-05 3.19999999999968e-05 0.0040000000000000001 0.001 -0.002 0 0 0 0 0 0 0 0 0 0
458 1 1.6109861341458121e-06 8.0549306707290603e-07 2.1891424857638389e-15 7.6000000000002159e-05 5.4000000000001597e-05 3.9999999999996798e-05 7.6000000000002159e-05 5.4000000000001597e-05 3.9999999999996798e-05 0.0040000000000000001 0.001 -0.002 0 0 0 0 0 0 0 0 0 0
459 1 2.0713039926790253e-06 1.0356519963395126e-06 4.652968895035687e-15 7.6000000000002159e-05 5.4000000000001597e-05 4.7999999999996803e-05 7.6000000000002159e-05 5.4000000000001597e-05 4.7999999999996803e-05 0.0040000000000000001 0.001 -0.002 0 0 0 0 0 0 0 0 0 0
460 1 2.0327504169289778e-06 1.0163752084644889e-06 4.397955176356815e-15 7.6000000000002159e-05 5.4000000000001597e-05 5.5999999999996794e-05 7.6000000000002159e-05 5.4000000000001597e-05 5.5999999999996794e-05 0.0040000000000000001 0.001 -0.002 0 0 0 0 0 0 0 0 0 0
461 1 3.7242043946307392e-06 1.8621021973153696e-06 2.7045757334230851e-14 7.6000000000002159e-05 6.2000000000000938e-05 6.3999999999997463e-05 7.6000000000002159e-05 6.2000000000000938e-05 -1.600000000000253e-05 0.0040000000000000001 0.001 -0.002 0 0 0 0 0 0 0 0 0 -1
462 1 1.995846852420394e-06 9.9792342621019701e-07 4.1627493596115043e-15 7.6000000000002159e-05 6.2000000000000938e-05 7.1999999999998809e-05 7.6000000000002159e-05 6.2000000000000938e-05 -8.0000000000011838e-06 0.0040000000000000001 0.001 -0.002 0 0 0 0 0 0 0 0 0 -1
463 1 2.261624239143357e-06 1.1308121195716785e-06 6.0570334573415316e-15 7.6000000000002159e-05 6.2000000000000938e-05 1.6970437447137916e-19 7.6000000000002159e-05 6.2000000000000938e-05 1.6970437447137916e-19 0.0040000000000000001 0.001 -0.002 0 0 0 0 0 0 0 0 0 0
464 1 2.6420791897780826e-06 1.3210395948890413e-06 9.6568639613714786e-15 7.6000000000002159e-05 6.2000000000000938e-05 8.0000000000001911e-06 7.6000000000002159e-05 6.2000000000000938e-05 8.0000000000001911e-06 0.0040000000000000001 0.001 -0.002 0 0 0 0 0 0 0 0 0 0
465 1 2.2481277033014018e-06 1.1240638516507009e-06 5.9492408931218818e-15 7.6000000000002159e-05 6.2000000000000938e-05 1.5999999999999264e-05 7.6000000000002159e-05 6.2000000000000938e-05 1.5999999999999264e-05 0.0040000000000000001 0.001 -0.002 0 0 0 0 0 0 0 0 0 0
466 1 2.2380453426763223e-06 1.1190226713381611e-06 5.869556203113704e-15 7.6000000000002159e-05 6.2000000000000938e-05 2.3999999999997907e-05 7.6000000000002159e-05 6.2000000000000938e-05 2.3999999999997907e-05 0.0040000000000000001 0.001 -0.002 0 0 0 0 0 0 0 0 0 0
467 1 2.7237934500741978e-06 1.3618967250370989e-06 1.0580864088398371e-14 7.6000000000002159e-05 6.2000000000000938e-05 3.19999999999968e-05 7.6000000000002159e-05 6.2000000000000938e-05 3.19999999999968e-05 0.0040000000000000001 0.001 -0.002 0 0 0 0 0 0 0 0 0 0
468 1 1.5273979132003347e-06 7.6369895660016733e-07 1.8657575213691322e-15 7.6000000000002159e-05 6.2000000000000938e-05 3.9999999999996798e-05 7.6000000000002159e-05 6.2000000000000938e-05 3.9999999999996798e-05 0.0040000000000000001 0.001 -0.002 0 0 0 0 0 0 0 0 0 0
469 1 2.518742044969523e-06 1.2593710224847615e-06 8.3666133234888942e-15 7.6000000000002159e-05 6.2000000000000938e-05 4.7999999999996803e-05 7.6000000000002159e-05 6.2000000000000938e-05 4.7999999999996803e-05 0.0040000000000000001 0.001 -0.002 0 0 0 0 0 0 0 0 0 0
470 1 2.3016512313001789e-06 1.1508256156500894e-06 6.3843570829239469e-15 7.6000000000002159e-05 6.2000000000000938e-05 5.5999999999996794e-05 7.6000000000002159e-05 6.2000000000000938e-05 5.5999999999996794e-05 0.0040000000000000001 0.001 -0.002 0 0 0 0 0 0 0 0 0 0
471 1 3.3811894002453173e-06 1.6905947001226586e-06 2.0239842041137393e-14 7.6000000000002159e-05 6.9999999999995522e-05 6.3999999999997463e-05 7.6000000000002159e-05 6.9999999999995522e-05 -1.600000000000253e-05 0.0040000000000000001 0.001 -0.002 0 0 0 0 0 0 0 0 0 -1
472 1 1.2558753538095485e-06 6.2793767690477427e-07 1.0371420320042279e-15 7.6000000000002159e-05 6.9999999999995522e-05 7.1999999999998809e-05 7.6000000000002159e-05 6.9999999999995522e-05 -8.0000000000011838e-06 0.0040000000000000001 0.001 -0.002 0 0 0 0 0 0 0 0 0 -1
473 1 1.2721957238928326e-06 6.3609786194641628e-07 1.0781034027651984e-15 7.6000000000002159e-05 6.9999999999995522e-05 1.6970437447137916e-19 7.6000000000002159e-05 6.9999999999995522e-05 1.6970437447137916e-19 0.0040000000000000001 0.001 -0.002 0 0 0 0 0 0 0 0 0 0
474 1 2.0629255242682397e-06 1.0314627621341198e-06 4.5967329129921198e-15 7.6000000000002159e-05 6.9999999999995522e-05 8.0000000000001911e-06 7.6000000000002159e-05 6.9999999999995522e-05 8.0000000000001911e-06 0.0040000000000000001 0.001 -0.002 0 0 0 0 0 0 0 0 0 0
475 1 2.9752215223486433e-06 1.4876107611743216e-06 1.3789754779762077e-14 7.6000000000002159e-05 6.9999999999995522e-05 1.5999999999999264e-05 7.6000000000002159e-05 6.9999999999995522e-05 1.5999999999999264e-05 0.0040000000000000001 0.001 -0.002 0 0 0 0 0 0 0 0 0 0
476 1 2.1160039975237803e-06 1.0580019987618902e-06 4.960758369723554e-15 7.6000000000002159e-05 6.9999999999995522e-05 2.3999999999997907e-05 7.6000000000002159e-05 6.9999999999995522e-05 2.3999999999997907e-05 0.0040000000000000001 0.001 -0.002 0 0 0 0 0 0 0 0 0 0
477 1 2.1766602353629406e-06 1.0883301176814703e-06 5.3997114475170099e-15 7.6000000000002159e-05 6.9999999999995522e-05 3.19999999999968e-05 7.6000000000002159e-05 6.9999999999995522e-05 3.19999999999968e-05 0.0040000000000000001 0.001 -0.002 0 0 0 0 0 0 0 0 0 0
478 1 2.05959118463094e-06 1.02979559231547e-06 4.5744796005959862e-15 7.6000000000002159e-05 6.9999999999995522e-05 3.9999999999996798e-05 7.6000000000002159e-05 6.9999999999995522e-05 3.9999999999996798e-05 0.0040000000000000001 0.001 -0.002 0 0 0 0 0 0 0 0 0 0
479 1 2.4339811924448633e-06 1.2169905962224316e-06 7.5500578024254576e-15 7.6000000000002159e-05 6.9999999999995522e-05 4.7999999999996803e-05 7.6000000000002159e-05 6.9999999999995522e-05 4.7999999999996803e-05 0.0040000000000000001 0.001 -0.002 0 0 0 0 0 0 0 0 0 0
480 1 1.8341313879319708e-06 9.1706569396598542e-07 3.2306503079728808e-15 7.6000000000002159e-05 6.9999999999995522e-05 5.5999999999996794e-05 7.6000000000002159e-05 6.9999999999995522e-05 5.5999999999996794e-05 0.0040000000000000001 0.001 -0.002 0 0 0 0 0 0 0 0 0 0
481 1 2.5015725374903119e-06 1.250786268745156e-06 8.1966789324232015e-15 7.6000000000002159e-05 7.7999999999994822e-05 6.3999999999997463e-05 7.6000000000002159e-05 7.7999999999994822e-05 -1.600000000000253e-05 0.0040000000000000001 0.001 -0.002 0 0 0 0 0 0 0 0 0 -1
482 1 2.09918398712934e-06 1.04959199356467e-06 4.8433977630538251e-15 7.6000000000002159e-05 7.7999999999994822e-05 7.1999999999998809e-05 7.6000000000002159e-05 7.7999999999994822e-05 -8.0000000000011838e-06 0.0040000000000000001 0.001 -0.002 0 0 0 0 0 0 0 0 0 -1
483 1 2.7468401182382697e-06 1.3734200591191348e-06 1.085172470056862e-14 7.6000000000002159e-05 7.7999999999994822e-05 1.6970437447137916e-19 7.6000000000002159e-05 7.7999999999994822e-05 1.6970437447137916e-19 0.0040000000000000001 0.001 -0.002 0 0 0 0 0 0 0 0 0 0
484 1 2.4379784428118537e-06 1.2189892214059268e-06 7.5873165881616017e-15 7.6000000000002159e-05 7.7999999999994822e-05 8.0000000000001911e-06 7.6000000000002159e-05 7.7999999999994822e-05 8.0000000000001911e-06 0.0040000000000000001 0.001 -0.002 0 0 0 0 0 0 0 0 0 0
485 1 1.212518258051583e-06 6.0625912902579151e-07 9.3339072932754285e-16 7.6000000000002159e-05 7.7999999999994822e-05 1.5999999999999264e-05 7.6000000000002159e-05 7.7999999999994822e-05 1.5999999999999264e-05 0.0040000000000000001 0.001 -0.002 0 0 0 0 0 0 0 0 0 0
486 1 1.2982565301491176e-06 6.491282650745588e-07 1.1457244194591528e-15 7.6000000000002159e-05 7.7999999999994822e-05 2.3999999999997907e-05 7.6000000000002159e-05 7.7999999999994822e-05 2.3999999999997907e-05 0.0040000000000000001 0.001 -0.002 0 0 0 0 0 0 0 0 0 0
487 1 1.8116513326840312e-06 9.0582566634201561e-07 3.1133107822865985e-15 7.6000000000002159e-05 7.7999999999994822e-05 3.19999999999968e-05 7.6000000000002159e-05 7.7999999999994822e-05 3.19999999999968e-05 0.0040000000000000001 0.001 -0.002 0 0 0 0 0 0 0 0 0 0
488 1 1.8164338296744124e-06 9.0821691483720619e-07 3.1380319959460413e-15 7.6000000000002159e-05 7.7999999999994822e-05 3.9999999999996798e-05 7.6000000000002159e-05 7.7999999999994822e-05 3.9999999999996798e-05 0.0040000000000000001 0.001 -0.002 0 0 0 0 0 0 0 0 0 0
489 1 1.8118396145259641e-06 9.0591980726298207e-07 3.1142815664559547e-15 7.6000000000002159e-05 7.7999999999994822e-05 4.7999999999996803e-05 7.6000000000002159e-05 7.7999999999994822e-05 4.7999999999996803e-05 0.0040000000000000001 0.001 -0.002 0 0 0 0 0 0 0 0 0 0
490 1 1.462869662960993e-06 7.3143483148049652e-07 1.6391380168422399e-15 7.6000000000002159e-05 7.7999999999994822e-05 5.5999999999996794e-05 7.6000000000002159e-05 7.7999999999994822e-05 5.5999999999996794e-05 0.0040000000000000001 0.001 -0.002 0 0 0 0 0 0 0 0 0 0
491 1 1.4937186615902619e-06 7.4685933079513096e-07 1.745038619605517e-15 7.6000000000002159e-05 5.9999999999978741e-06 6.3999999999997463e-05 7.6000000000002159e-05 8.5999999999997862e-05 -1.600000000000253e-05 0.0040000000000000001 0.001 -0.002 0 0 0 0 0 0 0 0 1 -1
492 1 1.9259756808840141e-06 9.6298784044200707e-07 3.7406839770395517e-15 7.6000000000002159e-05 5.9999999999978741e-06 7.1999999999998809e-05 7.6000000000002159e-05 8.5999999999997862e-05 -8.0000000000011838e-06 0.0040000000000000001 0.001 -0.002 0 0 0 0 0 0 0 0 1 -1
493 1 2.6018155725570499e-06 1.300907786278525e-06 9.2220643535824791e-15 7.6000000000002159e-05 5.9999999999978741e-06 1.6970437447137916e-19 7.6000000000002159e-05 8.5999999999997862e-05 1.6970437447137916e-19 0.0040000000000000001 0.001 -0.002 0 0 0 0 0 0 0 0 1 0
494 1 1.4337904744833408e-06 7.1689523724167041e-07 1.5433189708255788e-15 7.6000000000002159e-05 5.9999999999978741e-06 8.0000000000001911e-06 7.6000000000002159e-05 8.5999999999997862e-05 8.0000000000001911e-06 0.0040000000000000001 0.001 -0.002 0 0 0 0 0 0 0 0 1 0
495 1 1.779708453212817e-06 8.8985422660640848e-07 2.9515164770892505e-15 7.6000000000002159e-05 5.9999999999978741e-06 1.5999999999999264e-05 7.6000000000002159e-05 8.5999999999997862e-05 1.5999999999999264e-05 0.0040000000000000001 0.001 -0.002 0 0 0 0 0 0 0 0 1 0
496 1 1.569328025402392e-06 7.8466401270119598e-07 2.0236705611398483e-15 7.6000000000002159e-05 5.9999999999978741e-06 2.3999999999997907e-05 7.6000000000002159e-05 8.5999999999997862e-05 2.3999999999997907e-05 0.0040000000000000001 0.001 -0.002 0 0 0 0 0 0 0 0 1 0
497 1 1.6640466750234189e-06 8.3202333751170943e-07 2.4126544968361722e-15 7.6000000000002159e-05 5.9999999999978741e-06 3.19999999999968e-05 7.6000000000002159e-05 8.5999999999997862e-05 3.19999999999968e-05 0.0040000000000000001 0.001 -0.002 0 0 0 0 0 0 0 0 1 0
498 1 1.9852234518289599e-06 9.9261172591447996e-07 4.0966306804554965e-15 7.6000000000002159e-05 5.9999999999978741e-06 3.9999999999996798e-05 7.6000000000002159e-05 8.5999999999997862e-05 3.9999999999996798e-05 0.0040000000000000001 0.001 -0.002 0 0 0 0 0 0 0 0 1 0
499 1 2.6650462256434204e-06 1.3325231128217102e-06 9.9108946859810191e-15 7.6000000000002159e-05 5.9999999999978741e-06 4.7999999999996803e-05 7.6000000000002159e-05 8.5999999999997862e-05 4.7999999999996803e-05 0.0040000000000000001 0.001 -0.002 0 0 0 0 0 0 0 0 1 0
500 1 1.0832630777996705e-06 5.4163153889983527e-07 6.6558027791374473e-16 7.6000000000002159e-05 5.9999999999978741e-06 5.5999999999996794e-05 7.6000000000002159e-05 8.5999999999997862e-05 5.5999999999996794e-05 0.0040000000000000001 0.001 -0.002 0 0 0 0 0 0 0 0 1 0
501 1 2.2058291584680846e-06 1.1029145792340423e-06 5.6197143658159985e-15 4.0000000000028746e-06 1.3999999999999905e-05 6.3999999999997463e-05 8.4000000000002868e-05 1.3999999999999905e-05 -1.600000000000253e-05 0.0040000000000000001 0.001 -0.002 0 0 0 0 0 0 0 1 0 -1
502 1 1.7913474268120877e-06 8.9567371340604387e-07 3.0098031678397335e-15 4.0000000000028746e-06 1.3999999999999905e-05 7.1999999999998809e-05 8.4000000000002868e-05 1.3999999999999905e-05 -8.0000000000011838e-06 0.0040000000000000001 0.001 -0.002 0 0 0 0 0 0 0 1 0 -1
503 1 3.0403775172228885e-06 1.5201887586114442e-06 1.4715707925527055e-14 4.0000000000028746e-06 1.3999999999999905e-05 1.6970437447137916e-19 8.4000000000002868e-05 1.3999999999999905e-05 1.6970437447137916e-19 0.0040000000000000001 0.001 -0.002 0 0 0 0 0 0 0 1 0 0
504 1 1.6939631352190561e-06 8.4698156760952803e-07 2.5451330272707024e-15 4.0000000000028746e-06 1.3999999999999905e-05 8.0000000000001911e-06 8.4000000000002868e-05 1.3999999999999905e-05 8.0000000000001911e-06 0.0040000000000000001 0.001 -0.002 0 0 0 0 0 0 0 1 0 0
505 1 3.0309850933168444e-06 1.5154925466584222e-06 1.4579748205701057e-14 4.0000000000028746e-06 1.3999999999999905e-05 1.5999999999999264e-05 8.4000000000002868e-05 1.3999999999999905e-05 1.5999999999999264e-05 0.0040000000000000001 0.001 -0.002 0 0 0 0 0 0 0 1 0 0
506 1 1.6037242478832565e-06 8.0186212394162824e-07 2.1596715603968952e-15 4.0000000000028746e-06 1.3999999999999905e-05 2.3999999999997907e-05 8.4000000000002868e-05 1.3999999999999905e-05 2.3999999999997907e-05 0.0040000000000000001 0.001 -0.002 0 0 0 0 0 0 0 1 0 0
507 1 1.2213458283422984e-06 6.1067291417114919e-07 9.539257724515581e-16 4.0000000000028746e-06 1.3999999999999905e-05 3.19999999999968e-05 8.4000000000002868e-05 1.3999999999999905e-05 3.19999999999968e-05 0.0040000000000000001 0.001 -0.002 0 0 0 0 0 0 0 1 0 0
508 1 1.3684363880780896e-06 6.8421819403904481e-07 1.3417526579297313e-15 4.0000000000028746e-06 1.3999999999999905e-05 3.9999999999996798e-05 8.4000000000002868e-05 1.3999999999999905e-05 3.9999999999996798e-05 0.0040000000000000001 0.001 -0.002 0 0 0 0 0 0 0 1 0 0
509 1 1.263170042506282e-06 6.3158502125314098e-07 1.0553197704757774e-15 4.0000000000028746e-06 1.3999999999999905e-05 4.7999999999996803e-05 8.4000000000002868e-05 1.3999999999999905e-05 4.7999999999996803e-05 0.0040000000000000001 0.001 -0.002 0 0 0 0 0 0 0 1 0 0
510 1 2.2719471464247543e-06 1.1359735732123772e-06 6.1403523673676872e-15 4.0000000000028746e-06 1.3999999999999905e-05 5.5999999999996794e-05 8.4000000000002868e-05 1.3999999999999905e-05 5.5999999999996794e-05 0.0040000000000000001 0.001 -0.002 0 0 0 0 0 0 0 1 0 0
511 1 1.7262516466182384e-06 8.6312582330911918e-07 2.6934625399133307e-15 4.0000000000028746e-06 2.2000000000001046e-05 6.3999999999997463e-05 8.4000000000002868e-05 2.2000000000001046e-05 -1.600000000000253e-05 0.0040000000000000001 0.001 -0.002 0 0 0 0 0 0 0 1 0 -1
512 1 2.5699725609632225e-06 1.2849862804816113e-06 8.8875914354112942e-15 4.0000000000028746e-06 2.2000000000001046e-05 7.1999999999998809e-05 8.4000000000002868e-05 2.2000000000001046e-05 -8.0000000000011838e-06 0.0040000000000000001 0.001 -0.002 0 0 0 0 0 0 0 1 0 -1
513 1 2.4068972884320348e-06 1.2034486442160174e-06 7.3008141856287589e-15 4.0000000000028746e-06 2.2000000000001046e-05 1.6970437447137916e-19 8.4000000000002868e-05 2.2000000000001046e-05 1.6970437447137916e-19 0.0040000000000000001 0.001 -0.002 0 0 0 0 0 0 0 1 0 0
514 1 1.5615856547138593e-06 7.8079282735692966e-07 1.9938663988228086e-15 4.0000000000028746e-06 2.2000000000001046e-05 8.0000000000001911e-06 8.4000000000002868e-05 2.2000000000001046e-05 8.0000000000001911e-06 0.0040000000000000001 0.001 -0.002 0 0 0 0 0 0 0 1 0 0
515 1 2.8704431820137429e-06 1.4352215910068715e-06 1.2383559258618611e-14 4.0000000000028746e-06 2.2000000000001046e-05 1.5999999999999264e-05 8.4000000000002868e-05 2.2000000000001046e-05 1.5999999999999264e-05 0.0040000000000000001 0.001 -0.002 0 0 0 0 0 0 0 1 0 0
516 1 1.1304497301650403e-06 5.6522486508252017e-07 7.5640150777055676e-16 4.0000000000028746e-06 2.2000000000001046e-05 2.3999999999997907e-05 8.4000000000002868e-05 2.2000000000001046e-05 2.3999999999997907e-05 0.0040000000000000001 0.001 -0.002 0 0 0 0 0 0 0 1 0 0
517 1 1.5569148382623294e-06 7.784574191311647e-07 1.9760284610014169e-15 4.0000000000028746e-06 2.2000000000001046e-05 3.19999999999968e-05 8.4000000000002868e-05 2.2000000000001046e-05 3.19999999999968e-05 0.0040000000000000001 0.001 -0.002 0 0 0 0 0 0 0 1 0 0
518 1 1.1063859353759232e-06 5.531929676879616e-07 7.0911808438942819e-16 4.0000000000028746e-06 2.2000000000001046e-05 3.9999999999996798e-05 8.4000000000002868e-05 2.2000000000001046e-05 3.9999999999996798e-05 0.0040000000000000001 0.001 -0.002 0 0 0 0 0 0 0 1 0 0
519 1 2.5465509767677074e-06 1.2732754883838537e-06 8.6468065961491443e-15 4.0000000000028746e-06 2.2000000000001046e-05 4.7999999999996803e-05 8.4000000000002868e-05 2.2000000000001046e-05 4.7999999999996803e-05 0.0040000000000000001 0.001 -0.002 0 0 0 0 0 0 0 1 0 0
520 1 1.187883342594406e-06 5.9394167129720301e-07 8.7764725616290855e-16 4.0000000000028746e-06 2.2000000000001046e-05 5.5999999999996794e-05 8.4000000000002868e-05 2.2000000000001046e-05 5.5999999999996794e-05 0.0040000000000000001 0.001 -0.002 0 0 0 0 0 0 0 1 0 0
521 1 2.4510156666321134e-06 1.2255078333160567e-06 7.709689435327607e-15 4.0000000000028746e-06 3.0000000000001597e-05 6.3999999999997463e-05 8.4000000000002868e-05 3.0000000000001597e-05 -1.600000000000253e-05 0.0040000000000000001 0.001 -0.002 0 0 0 0 0 0 0 1 0 -1
522 1 1.6852118681713834e-06 8.426059340856917e-07 2.5058908440470178e-15 4.0000000000028746e-06 3.0000000000001597e-05 7.1999999999998809e-05 8.4000000000002868e-05 3.0000000000001597e-05 -8.0000000000011838e-06 0.0040000000000000001 0.001 -0.002 0 0 0 0 0 0 0 1 0 -1
523 1 2.0304449105209779e-06 1.015222455260489e-06 4.3830079136780464e-15 4.0000000000028746e-06 3.0000000000001597e-05 1.6970437447137916e-19 8.4000000000002868e-05 3.0000000000001597e-05 1.6970437447137916e-19 0.0040000000000000001 0.001 -0.002 0 0 0 0 0 0 0 1 0 0
524 1 1.5409649573355426e-06 7.7048247866777128e-07 1.9159179676016255e-15 4.0000000000028746e-06 3.0000000000001597e-05 8.0000000000001911e-06 8.4000000000002868e-05 3.0000000000001597e-05 8.0000000000001911e-06 0.0040000000000000001 0.001 -0.002 0 0 0 0 0 0 0 1 0 0
525 1 1.3395589698858355e-06 6.6977948494291775e-07 1.2585895826411387e-15 4.0000000000028746e-06 3.0000000000001597e-05 1.5999999999999264e-05 8.4000000000002868e-05 3.0000000000001597e-05 1.5999999999999264e-05 0.0040000000000000001 0.001 -0.002 0 0 0 0 0 0 0 1 0 0
526 1 4.8174526173951083e-06 2.4087263086975541e-06 5.853976540607782e-14 4.0000000000028746e-06 3.0000000000001597e-05 2.3999999999997907e-05 8.4000000000002868e-05 3.0000000000001597e-05 2.3999999999997907e-05 0.0040000000000000001 0.001 -0.002 0 0 0 0 0 0 0 1 0 0
527 1 2.292213667288576e-06 1.146106833644288e-06 6.3061444610592283e-15 4.0000000000028746e-06 3.0000000000001597e-05 3.19999999999968e-05 8.4000000000002868e-05 3.0000000000001597e-05 3.19999999999968e-05 0.0040000000000000001 0.001 -0.002 0 0 0 0 0 0 0 1 0 0
528 1 2.6474718475184046e-06 1.3237359237592023e-06 9.7161156207292015e-15 4.0000000000028746e-06 3.0000000000001597e-05 3.9999999999996798e-05 8.4000000000002868e-05 3.0000000000001597e-05 3.9999999999996798e-05 0.0040000000000000001 0.001 -0.002 0 0 0 0 0 0 0 1 0 0
529 1 1.0870960575060032e-06 5.4354802875300161e-07 6.7267050368563768e-16 4.0000000000028746e-06 3.0000000000001597e-05 4.7999999999996803e-05 8.4000000000002868e-05 3.0000000000001597e-05 4.7999999999996803e-05 0.0040000000000000001 0.001 -0.002 0 0 0 0 0 0 0 1 0 0
530 1 1.6237975808926558e-06 8.1189879044632788e-07 2.241786721873657e-15 4.0000000000028746e-06 3.0000000000001597e-05 5.5999999999996794e-05 8.4000000000002868e-05 3.0000000000001597e-05 5.5999999999996794e-05 0.0040000000000000001 0.001 -0.002 0 0 0 0 0 0 0 1 0 0
531 1 3.1387610869997432e-06 1.5693805434998716e-06 1.6190989891320851e-14 4.0000000000028746e-06 3.8000000000001595e-05 6.3999999999997463e-05 8.4000000000002868e-05 3.8000000000001595e-05 -1.600000000000253e-05 0.0040000000000000001 0.001 -0.002 0 0 0 0 0 0 0 1 0 -1
532 1 1.6040617944550599e-06 8.0203089722752995e-07 2.1610355290065359e-15 4.0000000000028746e-06 3.8000000000001595e-05 7.1999999999998809e-05 8.4000000000002868e-05 3.8000000000001595e-05 -8.0000000000011838e-06 0.0040000000000000001 0.001 -0.002 0 0 0 0 0 0 0 1 0 -1
533 1 1.2988295575801415e-06 6.4941477879007073e-07 1.1472421965613824e-15 4.0000000000028746e-06 3.8000000000001595e-05 1.6970437447137916e-19 8.4000000000002868e-05 3.8000000000001595e-05 1.6970437447137916e-19 0.0040000000000000001 0.001 -0.002 0 0 0 0 0 0 0 1 0 0
534 1 3.6181864602643839e-06 1.809093230132192e-06 2.4801129191702355e-14 4.0000000000028746e-06 3.8000000000001595e-05 8.0000000000001911e-06 8.4000000000002868e-05 3.8000000000001595e-05 8.0000000000001911e-06 0.0040000000000000001 0.001 -0.002 0 0 0 0 0 0 0 1 0 0
535 1 1.3223831930979307e-06 6.6119159654896536e-07 1.2107949056991727e-15 4.0000000000028746e-06 3.8000000000001595e-05 1.5999999999999264e-05 8.4000000000002868e-05 3.8000000000001595e-05 1.5999999999999264e-05 0.0040000000000000001 0.001 -0.002 0 0 0 0 0 0 0 1 0 0
536 1 1.3553695826721121e-06 6.7768479133605607e-07 1.3036824739259442e-15 4.0000000000028746e-06 3.8000000000001595e-05 2.3999999999997907e-05 8.4000000000002868e-05 3.8000000000001595e-05 2.3999999999997907e-05 0.0040000000000000001 0.001 -0.002 0 0 0 0 0 0 0 1 0 0
537 1 1.5626343894180597e-06 7.8131719470902984e-07 1.9978862388513709e-15 4.0000000000028746e-06 3.8000000000001595e-05 3.19999999999968e-05 8.4000000000002868e-05 3.8000000000001595e-05 3.19999999999968e-05 0.0040000000000000001 0.001 -0.002 0 0 0 0 0 0 0 1 0 0
538 1 2.1677136815380942e-06 1.0838568407690471e-06 5.3334027230322367e-15 4.0000000000028746e-06 3.8000000000001595e-05 3.9999999999996798e-05 8.4000000000002868e-05 3.8000000000001595e-05 3.9999999999996798e-05 0.0040000000000000001 0.001 -0.002 0 0 0 0 0 0 0 1 0 0
539 1 1.4341530241767387e-06 7.1707651208836937e-07 1.5444900024194758e-15 4.0000000000028746e-06 3.8000000000001595e-05 4.7999999999996803e-05 8.4000000000002868e-05 3.8000000000001595e-05 4.7999999999996803e-05 0.0040000000000000001 0.001 -0.002 0 0 0 0 0 0 0 1 0 0
540 1 2.3133541789471232e-06 1.1566770894735616e-06 6.4822385585106334e-15 4.0000000000028746e-06 3.8000000000001595e-05 5.5999999999996794e-05 8.4000000000002868e-05 3.8000000000001595e-05 5.5999999999996794e-05 0.0040000000000000001 0.001 -0.002 0 0 0 0 0 0 0 1 0 0
541 1 3.7113827013587811e-06 1.8556913506793906e-06 2.6767378488667115e-14 4.0000000000028746e-06 4.6000000000001599e-05 6.3999999999997463e-05 8.4000000000002868e-05 4.6000000000001599e-05 -1.600000000000253e-05 0.0040000000000000001 0.001 -0.002 0 0 0 0 0 0 0 1 0 -1
542 1 3.8831297867271206e-06 1.9415648933635603e-06 3.0658036804392806e-14 4.0000000000028746e-06 4.6000000000001599e-05 7.1999999999998809e-05 8.4000000000002868e-05 4.6000000000001599e-05 -8.0000000000011838e-06 0.0040000000000000001 0.001 -0.002 0 0 0 0 0 0 0 1 0 -1
543 1 1.9198559902587061e-06 9.5992799512935307e-07 3.7051396527239274e-15 4.0000000000028746e-06 4.6000000000001599e-05 1.6970437447137916e-19 8.4000000000002868e-05 4.6000000000001599e-05 1.6970437447137916e-19 0.0040000000000000001 0.001 -0.002 0 0 0 0 0 0 0 1 0 0
544 1 2.7000429597595968e-06 1.3500214798797984e-06 1.0306486644656044e-14 4.0000000000028746e-06 4.6000000000001599e-05 8.0000000000001911e-06 8.4000000000002868e-05 4.6000000000001599e-05 8.0000000000001911e-06 0.0040000000000000001 0.001 -0.002 0 0 0 0 0 0 0 1 0 0
545 1 1.7943966091865281e-06 8.9719830459326405e-07 3.0251989571991692e-15 4.0000000000028746e-06 4.6000000000001599e-05 1.5999999999999264e-05 8.4000000000002868e-05 4.6000000000001599e-05 1.5999999999999264e-05 0.0040000000000000001 0.001 -0.002 0 0 0 0 0 0 0 1 0 0
546 1 1.4879158296309996e-06 7.4395791481549982e-07 1.7247800286514902e-15 4.0000000000028746e-06 4.6000000000001599e-05 2.3999999999997907e-05 8.4000000000002868e-05 4.6000000000001599e-05 2.3999999999997907e-05 0.0040000000000000001 0.001 -0.002 0 0 0 0 0 0 0 1 0 0
547 1 1.6360735058135241e-06 8.1803675290676207e-07 2.293015855853672e-15 4.0000000000028746e-06 4.6000000000001599e-05 3.19999999999968e-05 8.4000000000002868e-05 4.6000000000001599e-05 3.19999999999968e-05 0.0040000000000000001 0.001 -0.002 0 0 0 0 0 0 0 1 0 0
548 1 1.5701640055995761e-06 7.8508200279978804e-07 2.0269063088756061e-15 4.0000000000028746e-06 4.6000000000001599e-05 3.9999999999996798e-05 8.4000000000002868e-05 4.6000000000001599e-05 3.9999999999996798e-05 0.0040000000000000001 0.001 -0.002 0 0 0 0 0 0 0 1 0 0
549 1 2.2814261846700856e-06 1.1407130923350428e-06 6.2175299742287385e-15 4.0000000000028746e-06 4.6000000000001599e-05 4.7999999999996803e-05 8.4000000000002868e-05 4.6000000000001599e-05 4.7999999999996803e-05 0.0040000000000000001 0.001 -0.002 0 0 0 0 0 0 0 1 0 0
550 1 1.4962578943424106e-06 7.4812894717120532e-07 1.7539531417357364e-15 4.0000000000028746e-06 4.6000000000001599e-05 5.5999999999996794e-05 8.4000000000002868e-05 4.6000000000001599e-05 5.5999999999996794e-05 0.0040000000000000001 0.001 -0.002 0 0 0 0 0 0 0 1 0 0
551 1 3.1521835461846743e-06 1.5760917730923371e-06 1.6399594722707496e-14 4.0000000000028746e-06 5.4000000000001597e-05 6.3999999999997463e-05 8.4000000000002868e-05 5.4000000000001597e-05 -1.600000000000253e-05 0.0040000000000000001 0.001 -0.002 0 0 0 0 0 0 0 1 0 -1
552 1 1.3428773933732486e-06 6.714386966866243e-07 1.2679662988361147e-15 4.0000000000028746e-06 5.4000000000001597e-05 7.1999999999998809e-05 8.4000000000002868e-05 5.4000000000001597e-05 -8.0000000000011838e-06 0.0040000000000000001 0.001 -0.002 0 0 0 0 0 0 0 1 0 -1
553 1 1.7975286813620633e-06 8.9876434068103164e-07 3.0410678398040398e-15 4.0000000000028746e-06 5.4000000000001597e-05 1.6970437447137916e-19 8.4000000000002868e-05 5.4000000000001597e-05 1.6970437447137916e-19 0.0040000000000000001 0.001 -0.002 0 0 0 0 0 0 0 1 0 0
554 1 1.2252795062423386e-06 6.126397531211693e-07 9.6317262628635125e-16 4.0000000000028746e-06 5.4000000000001597e-05 8.0000000000001911e-06 8.4000000000002868e-05 5.4000000000001597e-05 8.0000000000001911e-06 0.0040000000000000001 0.001 -0.002 0 0 0 0 0 0 0 1 0 0
555 1 3.0106647325227618e-06 1.5053323662613809e-06 1.4288472651042972e-14 4.0000000000028746e-06 5.4000000000001597e-05 1.5999999999999264e-05 8.4000000000002868e-05 5.4000000000001597e-05 1.5999999999999264e-05 0.0040000000000000001 0.001 -0.002 0 0 0 0 0 0 0 1 0 0
556 1 1.9763414878175417e-06 9.8817074390877083e-07 4.0418908835900986e-15 4.0000000000028746e-06 5.4000000000001597e-05 2.3999999999997907e-05 8.4000000000002868e-05 5.4000000000001597e-05 2.3999999999997907e-05 0.0040000000000000001 0.001 -0.002 0 0 0 0 0 0 0 1 0 0
557 1 1.4290245302335344e-06 7.1451226511676722e-07 1.527980014378463e-15 4.0000000000028746e-06 5.4000000000001597e-05 3.19999999999968e-05 8.4000000000002868e-05 5.4000000000001597e-05 3.19999999999968e-05 0.0040000000000000001 0.001 -0.002 0 0 0 0 0 0 0 1 0 0
558 1 3.0619653644024925e-06 1.5309826822012462e-06 1.5031400411571829e-14 4.0000000000028746e-06 5.4000000000001597e-05 3.9999999999996798e-05 8.4000000000002868e-05 5.4000000000001597e-05 3.9999999999996798e-05 0.0040000000000000001 0.001 -0.002 0 0 0 0 0 0 0 1 0 0
559 1 2.9138002649729673e-06 1.4569001324864837e-06 1.2953226441121374e-14 4.0000000000028746e-06 5.4000000000001597e-05 4.7999999999996803e-05 8.4000000000002868e-05 5.4000000000001597e-05 4.7999999999996803e-05 0.0040000000000000001 0.001 -0.002 0 0 0 0 0 0 0 1 0 0
560 1 2.2821052814831617e-06 1.1410526407415809e-06 6.2230838182701143e-15 4.0000000000028746e-06 5.4000000000001597e-05 5.5999999999996794e-05 8.4000000000002868e-05 5.4000000000001597e-05 5.5999999999996794e-05 0.0040000000000000001 0.001 -0.002 0 0 0 0 0 0 0 1 0 0
561 1 1.9739305607779766e-06 9.8696528038898832e-07 4.027116886165331e-15 4.0000000000028746e-06 6.2000000000000938e-05 6.3999999999997463e-05 8.4000000000002868e-05 6.2000000000000938e-05 -1.600000000000253e-05 0.0040000000000000001 0.001 -0.002 0 0 0 0 0 0 0 1 0 -1
562 1 2.2767243711179563e-06 1.1383621855589781e-06 6.1791678387430126e-15 4.0000000000028746e-06 6.2000000000000938e-05 7.1999999999998809e-05 8.4000000000002868e-05 6.2000000000000938e-05 -8.0000000000011838e-06 0.0040000000000000001 0.001 -0.002 0 0 0 0 0 0 0 1 0 -1
563 1 1.9738288116969083e-06 9.8691440584845414e-07 4.0264941677228565e-15 4.0000000000028746e-06 6.2000000000000938e-05 1.6970437447137916e-19 8.4000000000002868e-05 6.2000000000000938e-05 1.6970437447137916e-19 0.0040000000000000001 0.001 -0.002 0 0 0 0 0 0 0 1 0 0
564 1 1.3494686718176108e-06 6.7473433590880538e-07 1.2867288623618635e-15 4.0000000000028746e-06 6.2000000000000938e-05 8.0000000000001911e-06 8.4000000000002868e-05 6.2000000000000938e-05 8.0000000000001911e-06 0.0040000000000000001 0.001 -0.002 0 0 0 0 0 0 0 1 0 0
565 1 2.2466565968038983e-06 1.1233282984019492e-06 5.9375695261242807e-15 4.0000000000028746e-06 6.2000000000000938e-05 1.5999999999999264e-05 8.4000000000002868e-05 6.2000000000000938e-05 1.5999999999999264e-05 0.0040000000000000001 0.001 -0.002 0 0 0 0 0 0 0 1 0 0
566 1 2.2544631723507034e-06 1.1272315861753517e-06 5.9996795972072247e-15 4.0000000000028746e-06 6.2000000000000938e-05 2.3999999999997907e-05 8.4000000000002868e-05 6.2000000000000938e-05 2.3999999999997907e-05 0.0040000000000000001 0.001 -0.002 0 0 0 0 0 0 0 1 0 0
567 1 1.96049083730161e-06 9.8024541865080501e-07 3.9454184666856644e-15 4.0000000000028746e-06 6.2000000000000938e-05 3.19999999999968e-05 8.4000000000002868e-05 6.2000000000000938e-05 3.19999999999968e-05 0.0040000000000000001 0.001 -0.002 0 0 0 0 0 0 0 1 0 0
568 1 1.4861561400551147e-06 7.4307807002755736e-07 1.7186678091051426e-15 4.0000000000028746e-06 6.2000000000000938e-05 3.9999999999996798e-05 8.4000000000002868e-05 6.2000000000000938e-05 3.9999999999996798e-05 0.0040000000000000001 0.001 -0.002 0 0 0 0 0 0 0 1 0 0
569 1 2.4732241085964942e-06 1.2366120542982471e-06 7.9211645677158354e-15 4.0000000000028746e-06 6.2000000000000938e-05 4.7999999999996803e-05 8.4000000000002868e-05 6.2000000000000938e-05 4.7999999999996803e-05 0.0040000000000000001 0.001 -0.002 0 0 0 0 0 0 0 1 0 0
570 1 1.813618757699479e-06 9.0680937884973951e-07 3.1234648219000468e-15 4.0000000000028746e-06 6.2000000000000938e-05 5.5999999999996794e-05 8.4000000000002868e-05 6.2000000000000938e-05 5.5999999999996794e-05 0.0040000000000000001 0.001 -0.002 0 0 0 0 0 0 0 1 0 0
571 1 3.8295557616499196e-06 1.9147778808249598e-06 2.9406532355919971e-14 4.0000000000028746e-06 6.9999999999995522e-05 6.3999999999997463e-05 8.4000000000002868e-05 6.9999999999995522e-05 -1.600000000000253e-05 0.0040000000000000001 0.001 -0.002 0 0 0 0 0 0 0 1 0 -1
572 1 1.2574148957672127e-06 6.2870744788360637e-07 1.0409609186020522e-15 4.0000000000028746e-06 6.9999999999995522e-05 7.1999999999998809e-05 8.4000000000002868e-05 6.9999999999995522e-05 -8.0000000000011838e-06 0.0040000000000000001 0.001 -0.002 0 0 0 0 0 0 0 1 0 -1
573 1 1.5725784359265314e-06 7.8628921796326572e-07 2.0362709735242303e-15 4.0000000000028746e-06 6.9999999999995522e-05 1.6970437447137916e-19 8.4000000000002868e-05 6.9999999999995522e-05 1.6970437447137916e-19 0.0040000000000000001 0.001 -0.002 0 0 0 0 0 0 0 1 0 0
574 1 2.0444538048461819e-06 1.0222269024230909e-06 4.4743559241239206e-15 4.0000000000028746e-06 6.9999999999995522e-05 8.0000000000001911e-06 8.4000000000002868e-05 6.9999999999995522e-05 8.0000000000001911e-06 0.0040000000000000001 0.001 -0.002 0 0 0 0 0 0 0 1 0 0
575 1 1.3103142795618693e-06 6.5515713978093467e-07 1.1779450839786356e-15 4.0000000000028746e-06 6.9999999999995522e-05 1.5999999999999264e-05 8.4000000000002868e-05 6.9999999999995522e-05 1.5999999999999264e-05 0.0040000000000000001 0.001 -0.002 0 0 0 0 0 0 0 1 0 0
576 1 1.9772726159651678e-06 9.8863630798258388e-07 4.047606431950768e-15 4.0000000000028746e-06 6.9999999999995522e-05 2.3999999999997907e-05 8.4000000000002868e-05 6.9999999999995522e-05 2.3999999999997907e-05 0.0040000000000000001 0.001 -0.002 0 0 0 0 0 0 0 1 0 0
577 1 2.6916154078715409e-06 1.3458077039357704e-06 1.0210279703482955e-14 4.0000000000028746e-06 6.9999999999995522e-05 3.19999999999968e-05 8.4000000000002868e-05 6.9999999999995522e-05 3.19999999999968e-05 0.0040000000000000001 0.001 -0.002 0 0 0 0 0 0 0 1 0 0
578 1 1.1650107940664915e-06 5.8250539703324575e-07 8.2792018300938989e-16 4.0000000000028746e-06 6.9999999999995522e-05 3.9999999999996798e-05 8.4000000000002868e-05 6.9999999999995522e-05 3.9999999999996798e-05 0.0040000000000000001 0.001 -0.002 0 0 0 0 0 0 0 1 0 0
579 1 1.843662114577063e-06 9.2183105728853152e-07 3.2812749020357479e-15 4.0000000000028746e-06 6.9999999999995522e-05 4.7999999999996803e-05 8.4000000000002868e-05 6.9999999999995522e-05 4.7999999999996803e-05 0.0040000000000000001 0.001 -0.002 0 0 0 0 0 0 0 1 0 0
580 1 2.0000842490315719e-06 1.000042124515786e-06 4.1893195793627291e-15 4.0000000000028746e-06 6.9999999999995522e-05 5.5999999999996794e-05 8.4000000000002868e-05 6.9999999999995522e-05 5.5999999999996794e-05 0.0040000000000000001 0.001 -0.002 0 0 0 0 0 0 0 1 0 0
581 1 2.4380730618756322e-06 1.2190365309378161e-06 7.5882000241782583e-15 4.0000000000028746e-06 7.7999999999994822e-05 6.3999999999997463e-05 8.4000000000002868e-05 7.7999999999994822e-05 -1.600000000000253e-05 0.0040000000000000001 0.001 -0.002 0 0 0 0 0 0 0 1 0 -1
582 1 2.2626878299774563e-06 1.1313439149887281e-06 6.0655829350852251e-15 4.0000000000028746e-06 7.7999999999994822e-05 7.1999999999998809e-05 8.4000000000002868e-05 7.7999999999994822e-05 -8.0000000000011838e-06 0.0040000000000000001 0.001 -0.002 0 0 0 0 0 0 0 1 0 -1
583 1 1.7045767391256878e-06 8.5228836956284389e-07 2.5932733406558813e-15 4.0000000000028746e-06 7.7999999999994822e-05 1.6970437447137916e-19 8.4000000000002868e-05 7.7999999999994822e-05 1.6970437447137916e-19 0.0040000000000000001 0.001 -0.002 0 0 0 0 0 0 0 1 0 0
584 1 1.187770778825862e-06 5.9388538941293098e-07 8.7739778236888562e-16 4.0000000000028746e-06 7.7999999999994822e-05 8.0000000000001911e-06 8.4000000000002868e-05 7.7999999999994822e-05 8.0000000000001911e-06 0.0040000000000000001 0.001 -0.002 0 0 0 0 0 0 0 1 0 0
585 1 1.3754062240325266e-06 6.8770311201626331e-07 1.3623590410039879e-15 4.0000000000028746e-06 7.7999999999994822e-05 1.5999999999999264e-05 8.4000000000002868e-05 7.7999999999994822e-05 1.5999999999999264e-05 0.0040000000000000001 0.001 -0.002 0 0 0 0 0 0 0 1 0 0
586 1 1.2345471606631425e-06 6.1727358033157124e-07 9.8519381620681898e-16 4.0000000000028746e-06 7.7999999999994822e-05 2.3999999999997907e-05 8.4000000000002868e-05 7.7999999999994822e-05 2.3999999999997907e-05 0.0040000000000000001 0.001 -0.002 0 0 0 0 0 0 0 1 0 0
587 1 1.8630701776632185e-06 9.3153508883160923e-07 3.3859946269287018e-15 4.0000000000028746e-06 7.7999999999994822e-05 3.19999999999968e-05 8.4000000000002868e-05 7.7999999999994822e-05 3.19999999999968e-05 0.0040000000000000001 0.001 -0.002 0 0 0 0 0 0 0 1 0 0
588 1 3.0210099055961098e-06 1.5105049527980549e-06 1.4436272464419134e-14 4.0000000000028746e-06 7.7999999999994822e-05 3.9999999999996798e-05 8.4000000000002868e-05 7.7999999999994822e-05 3.9999999999996798e-05 0.0040000000000000001 0.001 -0.002 0 0 0 0 0 0 0 1 0 0
589 1 3.3127517469086122e-06 1.6563758734543061e-06 1.9035544204358694e-14 4.0000000000028746e-06 7.7999999999994822e-05 4.7999999999996803e-05 8.4000000000002868e-05 7.7999999999994822e-05 4.7999999999996803e-05 0.0040000000000000001 0.001 -0.002 0 0 0 0 0 0 0 1 0 0
590 1 1.7636647037044641e-06 8.8183235185223204e-07 2.8724117370096336e-15 4.0000000000028746e-06 7.7999999999994822e-05 5.5999999999996794e-05 8.4000000000002868e-05 7.7999999999994822e-05 5.5999999999996794e-05 0.0040000000000000001 0.001 -0.002 0 0 0 0 0 0 0 1 0 0
591 1 1.6449920230209042e-06 8.2249601151045212e-07 2.3307195078390081e-15 4.0000000000028746e-06 5.9999999999978741e-06 6.3999999999997463e-05 8.4000000000002868e-05 8.5999999999997862e-05 -1.600000000000253e-05 0.0040000000000000001 0.001 -0.002 0 0 0 0 0 0 0 1 1 -1
592 1 1.8354462500514561e-06 9.1772312502572804e-07 3.2376033087705987e-15 4.0000000000028746e-06 5.9999999999978741e-06 7.1999999999998809e-05 8.4000000000002868e-05 8.5999999999997862e-05 -8.0000000000011838e-06 0.0040000000000000001 0.001 -0.002 0 0 0 0 0 0 0 1 1 -1
593 1 3.6831471588007575e-06 1.8415735794003788e-06 2.616109007645386e-14 4.0000000000028746e-06 5.9999999999978741e-06 1.6970437447137916e-19 8.4000000000002868e-05 8.5999999999997862e-05 1.6970437447137916e-19 0.0040000000000000001 0.001 -0.002 0 0 0 0 0 0 0 1 1 0
594 1 2.1555399961794742e-06 1.0777699980897371e-06 5.2440506679781483e-15 4.0000000000028746e-06 5.9999999999978741e-06 8.0000000000001911e-06 8.4000000000002868e-05 8.5999999999997862e-05 8.0000000000001911e-06 0.0040000000000000001 0.001 -0.002 0 0 0 0 0 0 0 1 1 0
595 1 8.5144337784467303e-07 4.2572168892233652e-07 3.2319597128114279e-16 4.0000000000028746e-06 5.9999999999978741e-06 1.5999999999999264e-05 8.4000000000002868e-05 8.5999999999997862e-05 1.5999999999999264e-05 0.0040000000000000001 0.001 -0.002 0 0 0 0 0 0 0 1 1 0
596 1 3.4168459941627381e-06 1.7084229970813691e-06 2.088694079910485e-14 4.0000000000028746e-06 5.9999999999978741e-06 2.3999999999997907e-05 8.4000000000002868e-05 8.5999999999997862e-05 2.3999999999997907e-05 0.0040000000000000001 0.001 -0.002 0 0 0 0 0 0 0 1 1 0
597 1 3.3331672894203803e-06 1.6665836447101901e-06 1.9389649375754344e-14 4.0000000000028746e-06 5.9999999999978741e-06 3.19999999999968e-05 8.4000000000002868e-05 8.5999999999997862e-05 3.19999999999968e-05 0.0040000000000000001 0.001 -0.002 0 0 0 0 0 0 0 1 1 0
598 1 2.0166235149546848e-06 1.0083117574773424e-06 4.2941093866311245e-15 4.0000000000028746e-06 5.9999999999978741e-06 3.9999999999996798e-05 8.4000000000002868e-05 8.5999999999997862e-05 3.9999999999996798e-05 0.0040000000000000001 0.001 -0.002 0 0 0 0 0 0 0 1 1 0
599 1 1.279762566826209e-06 6.3988128341310451e-07 1.0974552765009587e-15 4.0000000000028746e-06 5.9999999999978741e-06 4.7999999999996803e-05 8.4000000000002868e-05 8.5999999999997862e-05 4.7999999999996803e-05 0.0040000000000000001 0.001 -0.002 0 0 0 0 0 0 0 1 1 0
600 1 1.9174151620419216e-06 9.5870758102096078e-07 3.6910259119337839e-15 4.0000000000028746e-06 5.9999999999978741e-06 5.5999999999996794e-05 8.4000000000002868e-05 8.5999999999997862e-05 5.5999999999996794e-05 0.0040000000000000001 0.001 -0.002 0 0 0 0 0 0 0 1 1 0
601 1 2.9284040228923519e-06 1.464202011446176e-06 1.314896613003032e-14 1.200000000000288e-05 1.3999999999999905e-05 6.3999999999997463e-05 9.2000000000002873e-05 1.3999999999999905e-05 -1.600000000000253e-05 0.0040000000000000001 0.001 -0.002 0 0 0 0 0 0 0 1 0 -1
602 1 2.6182022113488262e-06 1.3091011056744131e-06 9.3974100689421097e-15 1.200000000000288e-05 1.3999999999999905e-05 7.1999999999998809e-05 9.2000000000002873e-05 1.3999999999999905e-05 -8.0000000000011838e-06 0.0040000000000000001 0.001 -0.002 0 0 0 0 0 0 0 1 0 -1
603 1 1.6175866003513083e-06 8.0879330017565413e-07 2.2161606758080401e-15 1.200000000000288e-05 1.3999999999999905e-05 1.6970437447137916e-19 9.2000000000002873e-05 1.3999999999999905e-05 1.6970437447137916e-19 0.0040000000000000001 0.001 -0.002 0 0 0 0 0 0 0 1 0 0
604 1 2.3344003307816574e-06 1.1672001653908287e-06 6.660772961325029e-15 1.200000000000288e-05 1.3999999999999905e-05 8.0000000000001911e-06 9.2000000000002873e-05 1.3999999999999905e-05 8.0000000000001911e-06 0.0040000000000000001 0.001 -0.002 0 0 0 0 0 0 0 1 0 0
605 1 3.2058774728348531e-06 1.6029387364174266e-06 1.7251997308105435e-14 1.200000000000288e-05 1.3999999999999905e-05 1.5999999999999264e-05 9.2000000000002873e-05 1.3999999999999905e-05 1.5999999999999264e-05 0.0040000000000000001 0.001 -0.002 0 0 0 0 0 0 0 1 0 0
606 1 2.079847657171638e-06 1.039923828585819e-06 4.71078407514694e-15 1.200000000000288e-05 1.3999999999999905e-05 2.3999999999997907e-05 9.2000000000002873e-05 1.3999999999999905e-05 2.3999999999997907e-05 0.0040000000000000001 0.001 -0.002 0 0 0 0 0 0 0 1 0 0
607 1 2.9625017807263571e-06 1.4812508903631786e-06 1.361364691522368e-14 1.200000000000288e-05 1.3999999999999905e-05 3.19999999999968e-05 9.2000000000002873e-05 1.3999999999999905e-05 3.19999999999968e-05 0.0040000000000000001 0.001 -0.002 0 0 0 0 0 0 0 1 0 0
608 1 1.650925962705259e-06 8.254629813526295e-07 2.3560332455164668e-15 1.200000000000288e-05 1.3999999999999905e-05 3.9999999999996798e-05 9.2000000000002873e-05 1.3999999999999905e-05 3.9999999999996798e-05 0.0040000000000000001 0.001 -0.002 0 0 0 0 0 0 0 1 0 0
609 1 4.0060499664746379e-06 2.003024983237319e-06 3.3662603973828495e-14 1.200000000000288e-05 1.3999999999999905e-05 4.7999999999996803e-05 9.2000000000002873e-05 1.3999999999999905e-05 4.7999999999996803e-05 0.0040000000000000001 0.001 -0.002 0 0 0 0 0 0 0 1 0 0
610 1 3.8238663063265866e-06 1.9119331531632933e-06 2.9275661788395062e-14 1.200000000000288e-05 1.3999999999999905e-05 5.5999999999996794e-05 9.2000000000002873e-05 1.3999999999999905e-05 5.5999999999996794e-05 0.0040000000000000001 0.001 -0.002 0 0 0 0 0 0 0 1 0 0
611 1 1.7835851788706169e-06 8.9179258943530843e-07 2.9708463210895798e-15 1.200000000000288e-05 2.2000000000001046e-05 6.3999999999997463e-05 9.2000000000002873e-05 2.2000000000001046e-05 -1.600000000000253e-05 0.0040000000000000001 0.001 -0.002 0 0 0 0 0 0 0 1 0 -1
612 1 2.1021901495384425e-06 1.0510950747692212e-06 4.8642357189683714e-15 1.200000000000288e-05 2.2000000000001046e-05 7.1999999999998809e-05 9.2000000000002873e-05 2.2000000000001046e-05 -8.0000000000011838e-06 0.0040000000000000001 0.001 -0.002 0 0 0 0 0 0 0 1 0 -1
613 1 1.7474461853061809e-06 8.7372309265309047e-07 2.7938948190587616e-15 1.200000000000288e-05 2.2000000000001046e-05 1.6970437447137916e-19 9.2000000000002873e-05 2.2000000000001046e-05 1.6970437447137916e-19 0.0040000000000000001 0.001 -0.002 0 0 0 0 0 0 0 1 0 0
614 1 3.6358932887215306e-06 1.8179466443607653e-06 2.5167032368141274e-14 1.200000000000288e-05 2.2000000000001046e-05 8.0000000000001911e-06 9.2000000000002873e-05 2.2000000000001046e-05 8.0000000000001911e-06 0.0040000000000000001 0.001 -0.002 0 0 0 0 0 0 0 1 0 0
615 1 1.8238131987213562e-06 9.1190659936067808e-07 3.1764328977004777e-15 1.200000000000288e-05 2.2000000000001046e-05 1.5999999999999264e-05 9.2000000000002873e-05 2.2000000000001046e-05 1.5999999999999264e-05 0.0040000000000000001 0.001 -0.002 0 0 0 0 0 0 0 1 0 0
616 1 2.0735276691830917e-06 1.0367638345915459e-06 4.6679707626348955e-15 1.200000000000288e-05 2.2000000000001046e-05 2.3999999999997907e-05 9.2000000000002873e-05 2.2000000000001046e-05 2.3999999999997907e-05 0.0040000000000000001 0.001 -0.002 0 0 0 0 0 0 0 1 0 0
617 1 1.0441263853716128e-06 5.2206319268580641e-07 5.9601588438266183e-16 1.200000000000288e-05 2.2000000000001046e-05 3.19999999999968e-05 9.2000000000002873e-05 2.2000000000001046e-05 3.19999999999968e-05 0.0040000000000000001 0.001 -0.002 0 0 0 0 0 0 0 1 0 0
618 1 1.9928965062400464e-06 9.9644825312002321e-07 4.1443159730684601e-15 1.200000000000288e-05 2.2000000000001046e-05 3.9999999999996798e-05 9.2000000000002873e-05 2.2000000000001046e-05 3.9999999999996798e-05 0.0040000000000000001 0.001 -0.002 0 0 0 0 0 0 0 1 0 0
619 1 2.4612686813933158e-06 1.2306343406966579e-06 7.8068475536287679e-15 1.200000000000288e-05 2.2000000000001046e-05 4.7999999999996803e-05 9.2000000000002873e-05 2.2000000000001046e-05 4.7999999999996803e-05 0.0040000000000000001 0.001 -0.002 0 0 0 0 0 0 0 1 0 0
620 1 1.887966514030986e-06 9.43983257015493e-07 3.5235584796527918e-15 1.200000000000288e-05 2.2000000000001046e-05 5.5999999999996794e-05 9.2000000000002873e-05 2.2000000000001046e-05 5.5999999999996794e-05 0.0040000000000000001 0.001 -0.002 0 0 0 0 0 0 0 1 0 0
621 1 1.4431723302499181e-06 7.2158616512495907e-07 1.5738132710203764e-15 1.200000000000288e-05 3.0000000000001597e-05 6.3999999999997463e-05 9.2000000000002873e-05 3.0000000000001597e-05 -1.600000000000253e-05 0.0040000000000000001 0.001 -0.002 0 0 0 0 0 0 0 1 0 -1
622 1 2.0725043930630093e-06 1.0362521965315047e-06 4.6610633079211971e-15 1.200000000000288e-05 3.0000000000001597e-05 7.1999999999998809e-05 9.2000000000002873e-05 3.0000000000001597e-05 -8.0000000000011838e-06 0.0040000000000000001 0.001 -0.002 0 0 0 0 0 0 0 1 0 -1
623 1 3.0420200170592173e-06 1.5210100085296086e-06 1.4739570364683648e-14 1.200000000000288e-05 3.0000000000001597e-05 1.6970437447137916e-19 9.2000000000002873e-05 3.0000000000001597e-05 1.6970437447137916e-19 0.0040000000000000001 0.001 -0.002 0 0 0 0 0 0 0 1 0 0
624 1 1.9861816269442128e-06 9.930908134721064e-07 4.1025653037299694e-15 1.200000000000288e-05 3.0000000000001597e-05 8.0000000000001911e-06 9.2000000000002873e-05 3.0000000000001597e-05 8.0000000000001911e-06 0.0040000000000000001 0.001 -0.002 0 0 0 0 0 0 0 1 0 0
625 1 1.5627094439694922e-06 7.8135472198474612e-07 1.9981741327928559e-15 1.200000000000288e-05 3.0000000000001597e-05 1.5999999999999264e-05 9.2000000000002873e-05 3.0000000000001597e-05 1.5999999999999264e-05 0.0040000000000000001 0.001 -0.002 0 0 0 0 0 0 0 1 0 0
626 1 1.8448323385395783e-06 9.2241616926978915e-07 3.2875270198972202e-15 1.200000000000288e-05 3.0000000000001597e-05 2.3999999999997907e-05 9.2000000000002873e-05 3.0000000000001597e-05 2.3999999999997907e-05 0.0040000000000000001 0.001 -0.002 0 0 0 0 0 0 0 1 0 0
627 1 1.4318379215377831e-06 7.1591896076889157e-07 1.537022422860359e-15 1.200000000000288e-05 3.0000000000001597e-05 3.19999999999968e-05 9.2000000000002873e-05 3.0000000000001597e-05 3.19999999999968e-05 0.0040000000000000001 0.001 -0.002 0 0 0 0 0 0 0 1 0 0
628 1 2.3417711756906651e-06 1.1708855878453325e-06 6.7240663548232473e-15 1.200000000000288e-05 3.0000000000001597e-05 3.9999999999996798e-05 9.2000000000002873e-05 3.0000000000001597e-05 3.9999999999996798e-05 0.0040000000000000001 0.001 -0.002 0 0 0 0 0 0 0 1 0 0
629 1 3.8275832199323967e-06 1.9137916099661984e-06 2.9361115281851869e-14 1.200000000000288e-05 3.0000000000001597e-05 4.7999999999996803e-05 9.2000000000002873e-05 3.0000000000001597e-05 4.7999999999996803e-05 0.0040000000000000001 0.001 -0.002 0 0 0 0 0 0 0 1 0 0
630 1 2.4933345690386614e-06 1.2466672845193307e-06 8.1159674664580158e-15 1.200000000000288e-05 3.0000000000001597e-05 5.5999999999996794e-05 9.2000000000002873e-05 3.0000000000001597e-05 5.5999999999996794e-05 0.0040000000000000001 0.001 -0.002 0 0 0 0 0 0 0 1 0 0
631 1 3.7058266558852921e-06 1.8529133279426461e-06 2.6647343782539107e-14 1.200000000000288e-05 3.8000000000001595e-05 6.3999999999997463e-05 9.2000000000002873e-05 3.8000000000001595e-05 -1.600000000000253e-05 0.0040000000000000001 0.001 -0.002 0 0 0 0 0 0 0 1 0 -1
632 1 2.6139789897335032e-06 1.3069894948667516e-06 9.3520086523210865e-15 1.200000000000288e-05 3.8000000000001595e-05 7.1999999999998809e-05 9.2000000000002873e-05 3.8000000000001595e-05 -8.0000000000011838e-06 0.0040000000000000001 0.001 -0.002 0 0 0 0 0 0 0 1 0 -1
633 1 1.6503780166501655e-06 8.2518900832508277e-07 2.3536881057823624e-15 1.200000000000288e-05 3.8000000000001595e-05 1.6970437447137916e-19 9.2000000000002873e-05 3.8000000000001595e-05 1.6970437447137916e-19 0.0040000000000000001 0.001 -0.002 0 0 0 0 0 0 0 1 0 0
634 1 2.0540298401087213e-06 1.0270149200543607e-06 4.5375232985064124e-15 1.200000000000288e-05 3.8000000000001595e-05 8.0000000000001911e-06 9.2000000000002873e-05 3.8000000000001595e-05 8.0000000000001911e-06 0.0040000000000000001 0.001 -0.002 0 0 0 0 0 0 0 1 0 0
635 1 2.8316208235611085e-06 1.4158104117805542e-06 1.1887866371210964e-14 1.200000000000288e-05 3.8000000000001595e-05 1.5999999999999264e-05 9.2000000000002873e-05 3.8000000000001595e-05 1.5999999999999264e-05 0.0040000000000000001 0.001 -0.002 0 0 0 0 0 0 0 1 0 0
636 1 1.7288546727001267e-06 8.6442733635006335e-07 2.705665391218197e-15 1.200000000000288e-05 3.8000000000001595e-05 2.3999999999997907e-05 9.2000000000002873e-05 3.8000000000001595e-05 2.3999999999997907e-05 0.0040000000000000001 0.001 -0.002 0 0 0 0 0 0 0 1 0 0
637 1 2.1171651451781483e-06 1.0585825725890742e-06 4.9689294332925399e-15 1.200000000000288e-05 3.8000000000001595e-05 3.19999999999968e-05 9.2000000000002873e-05 3.8000000000001595e-05 3.19999999999968e-05 0.0040000000000000001 0.001 -0.002 0 0 0 0 0 0 0 1 0 0
638 1 2.3108264394576835e-06 1.1554132197288418e-06 6.4610128683505288e-15 1.200000000000288e-05 3.8000000000001595e-05 3.9999999999996798e-05 9.2000000000002873e-05 3.8000000000001595e-05 3.9999999999996798e-05 0.0040000000000000001 0.001 -0.002 0 0 0 0 0 0 0 1 0 0
639 1 2.2585268753652379e-06 1.1292634376826189e-06 6.0321816443415242e-15 1.200000000000288e-05 3.8000000000001595e-05 4.7999999999996803e-05 9.2000000000002873e-05 3.8000000000001595e-05 4.7999999999996803e-05 0.0040000000000000001 0.001 -0.002 0 0 0 0 0 0 0 1 0 0
640 1 1.8280024150633594e-06 9.1400120753167971e-07 3.1983715804312384e-15 1.200000000000288e-05 3.8000000000001595e-05 5.5999999999996794e-05 9.2000000000002873e-05 3.8000000000001595e-05 5.5999999999996794e-05 0.0040000000000000001 0.001 -0.002 0 0 0 0 0 0 0 1 0 0
641 1 2.4754419616294557e-06 1.2377209808147279e-06 7.9424934932081438e-15 1.200000000000288e-05 4.6000000000001599e-05 6.3999999999997463e-05 9.2000000000002873e-05 4.6000000000001599e-05 -1.600000000000253e-05 0.0040000000000000001 0.001 -0.002 0 0 0 0 0 0 0 1 0 -1
642 1 1.6242406242957831e-06 8.1212031214789154e-07 2.2436221966503159e-15 1.200000000000288e-05 4.6000000000001599e-05 7.1999999999998809e-05 9.2000000000002873e-05 4.6000000000001599e-05 -8.0000000000011838e-06 0.0040000000000000001 0.001 -0.002 0 0 0 0 0 0 0 1 0 -1
643 1 2.5572672256850613e-06 1.2786336128425306e-06 8.7564275835645641e-15 1.200000000000288e-05 4.6000000000001599e-05 1.6970437447137916e-19 9.2000000000002873e-05 4.6000000000001599e-05 1.6970437447137916e-19 0.0040000000000000001 0.001 -0.002 0 0 0 0 0 0 0 1 0 0
644 1 1.3307689492757788e-06 6.6538447463788942e-07 1.233975676475852e-15 1.200000000000288e-05 4.6000000000001599e-05 8.0000000000001911e-06 9.2000000000002873e-05 4.6000000000001599e-05 8.0000000000001911e-06 0.0040000000000000001 0.001 -0.002 0 0 0 0 0 0 0 1 0 0
645 1 2.2334959045829093e-06 1.1167479522914546e-06 5.8338344900459239e-15 1.200000000000288e-05 4.6000000000001599e-05 1.5999999999999264e-05 9.2000000000002873e-05 4.6000000000001599e-05 1.5999999999999264e-05 0.0040000000000000001 0.001 -0.002 0 0 0 0 0 0 0 1 0 0
646 1 4.7985973241003473e-06 2.3992986620501736e-06 5.7855086173924386e-14 1.200000000000288e-05 4.6000000000001599e-05 2.3999999999997907e-05 9.2000000000002873e-05 4.6000000000001599e-05 2.3999999999997907e-05 0.0040000000000000001 0.001 -0.002 0 0 0 0 0 0 0 1 0 0
647 1 1.7475396292450368e-06 8.7376981462251838e-07 2.7943430500254631e-15 1.200000000000288e-05 4.6000000000001599e-05 3.19999999999968e-05 9.2000000000002873e-05 4.6000000000001599e-05 3.19999999999968e-05 0.0040000000000000001 0.001 -0.002 0 0 0 0 0 0 0 1 0 0
648 1 2.1818442634883727e-06 1.0909221317441863e-06 5.4383839643167194e-15 1.200000000000288e-05 4.6000000000001599e-05 3.9999999999996798e-05 9.2000000000002873e-05 4.6000000000001599e-05 3.9999999999996798e-05 0.0040000000000000001 0.001 -0.002 0 0 0 0 0 0 0 1 0 0
649 1 1.7694132116013048e-06 8.8470660580065239e-07 2.9005904939749237e-15 1.200000000000288e-05 4.6000000000001599e-05 4.7999999999996803e-05 9.2000000000002873e-05 4.6000000000001599e-05 4.7999999999996803e-05 0.0040000000000000001 0.001 -0.002 0 0 0 0 0 0 0 1 0 0
650 1 1.7809656300970204e-06 8.9048281504851022e-07 2.9577757046029715e-15 1.200000000000288e-05 4.6000000000001599e-05 5.5999999999996794e-05 9.2000000000002873e-05 4.6000000000001599e-05 5.5999999999996794e-05 0.0040000000000000001 0.001 -0.002 0 0 0 0 0 0 0 1 0 0
651 1 1.2501235529836748e-06 6.2506177649183741e-07 1.0229571332100287e-15 1.200000000000288e-05 5.4000000000001597e-05 6.3999999999997463e-05 9.2000000000002873e-05 5.4000000000001597e-05 -1.600000000000253e-05 0.0040000000000000001 0.001 -0.002 0 0 0 0 0 0 0 1 0 -1
652 1 1.2614868989360667e-06 6.3074344946803336e-07 1.0511068248042941e-15 1.200000000000288e-05 5.4000000000001597e-05 7.1999999999998809e-05 9.2000000000002873e-05 5.4000000000001597e-05 -8.0000000000011838e-06 0.0040000000000000001 0.001 -0.002 0 0 0 0 0 0 0 1 0 -1
653 1 4.0284756713577478e-06 2.0142378356788739e-06 3.4231100215565734e-14 1.200000000000288e-05 5.4000000000001597e-05 1.6970437447137916e-19 9.2000000000002873e-05 5.4000000000001597e-05 1.6970437447137916e-19 0.0040000000000000001 0.001 -0.002 0 0 0 0 0 0 0 1 0 0
654 1 2.0268334283774073e-06 1.0134167141887037e-06 4.3596617741360821e-15 1.200000000000288e-05 5.4000000000001597e-05 8.0000000000001911e-06 9.2000000000002873e-05 5.4000000000001597e-05 8.0000000000001911e-06 0.0040000000000000001 0.001 -0.002 0 0 0 0 0 0 0 1 0 0
655 1 3.7718423239215498e-06 1.8859211619607749e-06 2.8096952068999273e-14 1.200000000000288e-05 5.4000000000001597e-05 1.5999999999999264e-05 9.2000000000002873e-05 5.4000000000001597e-05 1.5999999999999264e-05 0.0040000000000000001 0.001 -0.002 0 0 0 0 0 0 0 1 0 0
656 1 2.7302114207492977e-06 1.3651057103746488e-06 1.065583432086091e-14 1.200000000000288e-05 5.4000000000001597e-05 2.3999999999997907e-05 9.2000000000002873e-05 5.4000000000001597e-05 2.3999999999997907e-05 0.0040000000000000001 0.001 -0.002 0 0 0 0 0 0 0 1 0 0
657 1 1.6520296651944849e-06 8.2601483259724243e-07 2.3607616802916894e-15 1.200000000000288e-05 5.4000000000001597e-05 3.19999999999968e-05 9.2000000000002873e-05 5.4000000000001597e-05 3.19999999999968e-05 0.0040000000000000001 0.001 -0.002 0 0 0 0 0 0 0 1 0 0
658 1 1.4645371316842142e-06 7.3226856584210709e-07 1.6447495790574028e-15 1.200000000000288e-05 5.4000000000001597e-05 3.9999999999996798e-05 9.2000000000002873e-05 5.4000000000001597e-05 3.9999999999996798e-05 0.0040000000000000001 0.001 -0.002 0 0 0 0 0 0 0 1 0 0
659 1 9.964140520743833e-07 4.9820702603719165e-07 5.1798615652993702e-16 1.200000000000288e-05 5.4000000000001597e-05 4.7999999999996803e-05 9.2000000000002873e-05 5.4000000000001597e-05 4.7999999999996803e-05 0.0040000000000000001 0.001 -0.002 0 0 0 0 0 0 0 1 0 0
660 1 1.8026501807837475e-06 9.0132509039187377e-07 3.0671357047344958e-15 1.200000000000288e-05 5.4000000000001597e-05 5.5999999999996794e-05 9.2000000000002873e-05 5.4000000000001597e-05 5.5999999999996794e-05 0.0040000000000000001 0.001 -0.002 0 0 0 0 0 0 0 1 0 0
661 1 1.9569019535147335e-06 9.7845097675736675e-07 3.9237906020770247e-15 1.200000000000288e-05 6.2000000000000938e-05 6.3999999999997463e-05 9.2000000000002873e-05 6.2000000000000938e-05 -1.600000000000253e-05 0.0040000000000000001 0.001 -0.002 0 0 0 0 0 0 0 1 0 -1
662 1 2.4861125932978384e-06 1.2430562966489192e-06 8.0456475295811059e-15 1.200000000000288e-05 6.2000000000000938e-05 7.1999999999998809e-05 9.2000000000002873e-05 6.2000000000000938e-05 -8.0000000000011838e-06 0.0040000000000000001 0.001 -0.002 0 0 0 0 0 0 0 1 0 -1
663 1 2.0675516211408252e-06 1.0337758105704126e-06 4.6277267423138534e-15 1.200000000000288e-05 6.2000000000000938e-05 1.6970437447137916e-19 9.2000000000002873e-05 6.2000000000000938e-05 1.6970437447137916e-19 0.0040000000000000001 0.001 -0.002 0 0 0 0 0 0 0 1 0 0
664 1 2.0067087831317183e-06 1.0033543915658591e-06 4.2310842865710024e-15 1.200000000000288e-05 6.2000000000000938e-05 8.0000000000001911e-06 9.2000000000002873e-05 6.2000000000000938e-05 8.0000000000001911e-06 0.0040000000000000001 0.001 -0.002 0 0 0 0 0 0 0 1 0 0
665 1 1.9346192269302388e-06 9.6730961346511942e-07 3.7912735517314447e-15 1.200000000000288e-05 6.2000000000000938e-05 1.5999999999999264e-05 9.2000000000002873e-05 6.2000000000000938e-05 1.5999999999999264e-05 0.0040000000000000001 0.001 -0.002 0 0 0 0 0 0 0 1 0 0
666 1 1.8349580508119684e-06 9.1747902540598421e-07 3.2350205443382804e-15 1.200000000000288e-05 6.2000000000000938e-05 2.3999999999997907e-05 9.2000000000002873e-05 6.2000000000000938e-05 2.3999999999997907e-05 0.0040000000000000001 0.001 -0.002 0 0 0 0 0 0 0 1 0 0
667 1 1.7517399796220813e-06 8.7586998981104065e-07 2.8145407959827401e-15 1.200000000000288e-05 6.2000000000000938e-05 3.19999999999968e-05 9.2000000000002873e-05 6.2000000000000938e-05 3.19999999999968e-05 0.0040000000000000001 0.001 -0.002 0 0 0 0 0 0 0 1 0 0
668 1 2.183166312988459e-06 1.0915831564942295e-06 5.4482758301204261e-15 1.200000000000288e-05 6.2000000000000938e-05 3.9999999999996798e-05 9.2000000000002873e-05 6.2000000000000938e-05 3.9999999999996798e-05 0.0040000000000000001 0.001 -0.002 0 0 0 0 0 0 0 1 0 0
669 1 1.6326692235339932e-06 8.1633461176699659e-07 2.2787319464401353e-15 1.200000000000288e-05 6.2000000000000938e-05 4.7999999999996803e-05 9.2000000000002873e-05 6.2000000000000938e-05 4.7999999999996803e-05 0.0040000000000000001 0.001 -0.002 0 0 0 0 0 0 0 1 0 0
670 1 2.3035166677956549e-06 1.1517583338978275e-06 6.3998928004399259e-15 1.200000000000288e-05 6.2000000000000938e-05 5.5999999999996794e-05 9.2000000000002873e-05 6.2000000000000938e-05 5.5999999999996794e-05 0.0040000000000000001 0.001 -0.002 0 0 0 0 0 0 0 1 0 0
671 1 1.721396803944024e-06 8.6069840197201202e-07 2.6708014244228939e-15 1.200000000000288e-05 6.9999999999995522e-05 6.3999999999997463e-05 9.2000000000002873e-05 6.9999999999995522e-05 -1.600000000000253e-05 0.0040000000000000001 0.001 -0.002 0 0 0 0 0 0 0 1 0 -1
672 1 2.878451258375995e-06 1.4392256291879975e-06 1.248749311483086e-14 1.200000000000288e-05 6.9999999999995522e-05 7.1999999999998809e-05 9.2000000000002873e-05 6.9999999999995522e-05 -8.0000000000011838e-06 0.0040000000000000001 0.001 -0.002 0 0 0 0 0 0 0 1 0 -1
673 1 1.7777335313481127e-06 8.8886676567405633e-07 2.9417015856384474e-15 1.200000000000288e-05 6.9999999999995522e-05 1.6970437447137916e-19 9.2000000000002873e-05 6.9999999999995522e-05 1.6970437447137916e-19 0.0040000000000000001 0.001 -0.002 0 0 0 0 0 0 0 1 0 0
674 1 3.9179368388668233e-06 1.9589684194334116e-06 3.1489873328866851e-14 1.200000000000288e-05 6.9999999999995522e-05 8.0000000000001911e-06 9.2000000000002873e-05 6.9999999999995522e-05 8.0000000000001911e-06 0.0040000000000000001 0.001 -0.002 0 0 0 0 0 0 0 1 0 0
675 1 1.2683182222603735e-06 6.3415911113018675e-07 1.0682756238315969e-15 1.200000000000288e-05 6.9999999999995522e-05 1.5999999999999264e-05 9.2000000000002873e-05 6.9999999999995522e-05 1.5999999999999264e-05 0.0040000000000000001 0.001 -0.002 0 0 0 0 0 0 0 1 0 0
676 1 3.069077992075835e-06 1.5345389960379175e-06 1.5136393069529874e-14 1.200000000000288e-05 6.9999999999995522e-05 2.3999999999997907e-05 9.2000000000002873e-05 6.9999999999995522e-05 2.3999999999997907e-05 0.0040000000000000001 0.001 -0.002 0 0 0 0 0 0 0 1 0 0
677 1 3.794438782027542e-06 1.897219391013771e-06 2.860495532088366e-14 1.200000000000288e-05 6.9999999999995522e-05 3.19999999999968e-05 9.2000000000002873e-05 6.9999999999995522e-05 3.19999999999968e-05 0.0040000000000000001 0.001 -0.002 0 0 0 0 0 0 0 1 0 0
678 1 1.9997561394687346e-06 9.9987806973436731e-07 4.1872581706958523e-15 1.200000000000288e-05 6.9999999999995522e-05 3.9999999999996798e-05 9.2000000000002873e-05 6.9999999999995522e-05 3.9999999999996798e-05 0.0040000000000000001 0.001 -0.002 0 0 0 0 0 0 0 1 0 0
679 1 1.7398113614509166e-06 8.6990568072545829e-07 2.7574338970263876e-15 1.200000000000288e-05 6.9999999999995522e-05 4.7999999999996803e-05 9.2000000000002873e-05 6.9999999999995522e-05 4.7999999999996803e-05 0.0040000000000000001 0.001 -0.002 0 0 0 0 0 0 0 1 0 0
680 1 1.8104633256759343e-06 9.0523166283796716e-07 3.1071900513093169e-15 1.200000000000288e-05 6.9999999999995522e-05 5.5999999999996794e-05 9.2000000000002873e-05 6.9999999999995522e-05 5.5999999999996794e-05 0.0040000000000000001 0.001 -0.002 0 0 0 0 0 0 0 1 0 0
681 1 3.0974664117071893e-06 1.5487332058535947e-06 1.5560316963913784e-14 1.200000000000288e-05 7.7999999999994822e-05 6.3999999999997463e-05 9.2000000000002873e-05 7.7999999999994822e-05 -1.600000000000253e-05 0.0040000000000000001 0.001 -0.002 0 0 0 0 0 0 0 1 0 -1
682 1 2.6519357542435896e-06 1.3259678771217948e-06 9.7653456108336769e-15 1.200000000000288e-05 7.7999999999994822e-05 7.1999999999998809e-05 9.2000000000002873e-05 7.7999999999994822e-05 -8.0000000000011838e-06 0.0040000000000000001 0.001 -0.002 0 0 0 0 0 0 0 1 0 -1
683 1 2.8261571390841762e-06 1.4130785695420881e-06 1.1819185241288654e-14 1.200000000000288e-05 7.7999999999994822e-05 1.6970437447137916e-19 9.2000000000002873e-05 7.7999999999994822e-05 1.6970437447137916e-19 0.0040000000000000001 0.001 -0.002 0 0 0 0 0 0 0 1 0 0
684 1 2.3884906644933083e-06 1.1942453322466541e-06 7.1345940417855724e-15 1.200000000000288e-05 7.7999999999994822e-05 8.0000000000001911e-06 9.2000000000002873e-05 7.7999999999994822e-05 8.0000000000001911e-06 0.0040000000000000001 0.001 -0.002 0 0 0 0 0 0 0 1 0 0
685 1 1.8190984972861959e-06 9.0954924864309797e-07 3.1518625324782991e-15 1.200000000000288e-05 7.7999999999994822e-05 1.5999999999999264e-05 9.2000000000002873e-05 7.7999999999994822e-05 1.5999999999999264e-05 0.0040000000000000001 0.001 -0.002 0 0 0 0 0 0 0 1 0 0
686 1 2.1778746552091435e-06 1.0889373276045717e-06 5.4087544427563969e-15 1.200000000000288e-05 7.7999999999994822e-05 2.3999999999997907e-05 9.2000000000002873e-05 7.7999999999994822e-05 2.3999999999997907e-05 0.0040000000000000001 0.001 -0.002 0 0 0 0 0 0 0 1 0 0
687 1 2.1910791575358654e-06 1.0955395787679327e-06 5.5077323239098341e-15 1.200000000000288e-05 7.7999999999994822e-05 3.19999999999968e-05 9.2000000000002873e-05 7.7999999999994822e-05 3.19999999999968e-05 0.0040000000000000001 0.001 -0.002 0 0 0 0 0 0 0 1 0 0
688 1 1.2946648961583793e-06 6.4733244807918964e-07 1.1362417426425065e-15 1.200000000000288e-05 7.7999999999994822e-05 3.9999999999996798e-05 9.2000000000002873e-05 7.7999999999994822e-05 3.9999999999996798e-05 0.0040000000000000001 0.001 -0.002 0 0 0 0 0 0 0 1 0 0
689 1 2.1056653328112319e-06 1.0528326664056159e-06 4.8883991905037126e-15 1.200000000000288e-05 7.7999999999994822e-05 4.7999999999996803e-05 9.2000000000002873e-05 7.7999999999994822e-05 4.7999999999996803e-05 0.0040000000000000001 0.001 -0.002 0 0 0 0 0 0 0 1 0 0
690 1 1.9393041618569728e-06 9.6965208092848642e-07 3.8188835078240585e-15 1.200000000000288e-05 7.7999999999994822e-05 5.5999999999996794e-05 9.2000000000002873e-05 7.7999999999994822e-05 5.5999999999996794e-05 0.0040000000000000001 0.001 -0.002 0 0 0 0 0 0 0 1 0 0
691 1 1.3781390852301153e-06 6.8906954261505767e-07 1.3704959986784107e-15 1.200000000000288e-05 5.9999999999978741e-06 6.3999999999997463e-05 9.2000000000002873e-05 8.5999999999997862e-05 -1.600000000000253e-05 0.0040000000000000001 0.001 -0.002 0 0 0 0 0 0 0 1 1 -1
692 1 2.1414711776717506e-06 1.0707355888358753e-06 5.14203848747029e-15 1.200000000000288e-05 5.9999999999978741e-06 7.1999999999998809e-05 9.2000000000002873e-05 8.5999999999997862e-05 -8.0000000000011838e-06 0.0040000000000000001 0.001 -0.002 0 0 0 0 0 0 0 1 1 -1
693 1 1.8244186925625723e-06 9.1220934628128614e-07 3.1795976118634858e-15 1.200000000000288e-05 5.9999999999978741e-06 1.6970437447137916e-19 9.2000000000002873e-05 8.5999999999997862e-05 1.6970437447137916e-19 0.0040000000000000001 0.001 -0.002 0 0 0 0 0 0 0 1 1 0
694 1 3.5230620599955508e-06 1.7615310299977754e-06 2.2895994010880996e-14 1.200000000000288e-05 5.9999999999978741e-06 8.0000000000001911e-06 9.2000000000002873e-05 8.5999999999997862e-05 8.0000000000001911e-06 0.0040000000000000001 0.001 -0.002 0 0 0 0 0 0 0 1 1 0
695 1 1.8689965036028879e-06 9.3449825180144396e-07 3.4184095185285456e-15 1.200000000000288e-05 5.9999999999978741e-06 1.5999999999999264e-05 9.2000000000002873e-05 8.5999999999997862e-05 1.5999999999999264e-05 0.0040000000000000001 0.001 -0.002 0 0 0 0 0 0 0 1 1 0
696 1 3.0830726408395528e-06 1.5415363204197764e-06 1.5344399402994567e-14 1.200000000000288e-05 5.9999999999978741e-06 2.3999999999997907e-05 9.2000000000002873e-05 8.5999999999997862e-05 2.3999999999997907e-05 0.0040000000000000001 0.001 -0.002 0 0 0 0 0 0 0 1 1 0
697 1 1.6720416513995114e-06 8.360208256997557e-07 2.4475969171129812e-15 1.200000000000288e-05 5.9999999999978741e-06 3.19999999999968e-05 9.2000000000002873e-05 8.5999999999997862e-05 3.19999999999968e-05 0.0040000000000000001 0.001 -0.002 0 0 0 0 0 0 0 1 1 0
698 1 1.6248115769862339e-06 8.1240578849311693e-07 2.2459890611296932e-15 1.200000000000288e-05 5.9999999999978741e-06 3.9999999999996798e-05 9.2000000000002873e-05 8.5999999999997862e-05 3.9999999999996798e-05 0.0040000000000000001 0.001 -0.002 0 0 0 0 0 0 0 1 1 0
699 1 2.4546309393647428e-06 1.2273154696823714e-06 7.7438553890531575e-15 1.200000000000288e-05 5.9999999999978741e-06 4.7999999999996803e-05 9.2000000000002873e-05 8.5999999999997862e-05 4.7999999999996803e-05 0.0040000000000000001 0.001 -0.002 0 0 0 0 0 0 0 1 1 0
700 1 1.8296184908758149e-06 9.1480924543790744e-07 3.2068618020424637e-15 1.200000000000288e-05 5.9999999999978741e-06 5.5999999999996794e-05 9.2000000000002873e-05 8.5999999999997862e-05 5.5999999999996794e-05 0.0040000000000000001 0.001 -0.002 0 0 0 0 0 0 0 1 1 0
701 1 2.8108634116543418e-06 1.4054317058271709e-06 1.1628343428467409e-14 2.0000000000002871e-05 1.3999999999999905e-05 6.3999999999997463e-05 0.00010000000000000286 1.3999999999999905e-05 -1.600000000000253e-05 0.0040000000000000001 0.001 -0.002 0 0 0 0 0 0 0 1 0 -1
702 1 1.7626417589795923e-06 8.8132087948979613e-07 2.8674165451786338e-15 2.0000000000002871e-05 1.3999999999999905e-05 7.1999999999998809e-05 0.00010000000000000286 1.3999999999999905e-05 -8.0000000000011838e-06 0.0040000000000000001 0.001 -0.002 0 0 0 0 0 0 0 1 0 -1
703 1 1.5907399158792229e-06 7.9536995793961144e-07 2.1076386725554316e-15 2.0000000000002871e-05 1.3999999999999905e-05 1.6970437447137916e-19 0.00010000000000000286 1.3999999999999905e-05 1.6970437447137916e-19 0.0040000000000000001 0.001 -0.002 0 0 0 0 0 0 0 1 0 0
704 1 1.538187634428105e-06 7.6909381721405252e-07 1.9055772946499696e-15 2.0000000000002871e-05 1.3999999999999905e-05 8.0000000000001911e-06 0.00010000000000000286 1.3999999999999905e-05 8.0000000000001911e-06 0.0040000000000000001 0.001 -0.002 0 0 0 0 0 0 0 1 0 0
705 1 2.3557613066882685e-06 1.1778806533441342e-06 6.8452998244077842e-15 2.0000000000002871e-05 1.3999999999999905e-05 1.5999999999999264e-05 0.00010000000000000286 1.3999999999999905e-05 1.5999999999999264e-05 0.0040000000000000001 0.001 -0.002 0 0 0 0 0 0 0 1 0 0
706 1 1.5400907209051852e-06 7.7004536045259262e-07 1.9126589411110798e-15 2.0000000000002871e-05 1.3999999999999905e-05 2.3999999999997907e-05 0.00010000000000000286 1.3999999999999905e-05 2.3999999999997907e-05 0.0040000000000000001 0.001 -0.002 0 0 0 0 0 0 0 1 0 0
707 1 2.0227256735602183e-06 1.0113628367801091e-06 4.3332084635037505e-15 2.0000000000002871e-05 1.3999999999999905e-05 3.19999999999968e-05 0.00010000000000000286 1.3999999999999905e-05 3.19999999999968e-05 0.0040000000000000001 0.001 -0.002 0 0 0 0 0 0 0 1 0 0
708 1 1.5365925999507566e-06 7.6829629997537828e-07 1.8996554343097797e-15 2.0000000000002871e-05 1.3999999999999905e-05 3.9999999999996798e-05 0.00010000000000000286 1.3999999999999905e-05 3.9999999999996798e-05 0.0040000000000000001 0.001 -0.002 0 0 0 0 0 0 0 1 0 0
709 1 2.5402985189310493e-06 1.2701492594655246e-06 8.583272237112459e-15 2.0000000000002871e-05 1.3999999999999905e-05 4.7999999999996803e-05 0.00010000000000000286 1.3999999999999905e-05 4.7999999999996803e-05 0.0040000000000000001 0.001 -0.002 0 0 0 0 0 0 0 1 0 0
710 1 2.8050847116965984e-06 1.4025423558482992e-06 1.1556772548100594e-14 2.0000000000002871e-05 1.3999999999999905e-05 5.5999999999996794e-05 0.00010000000000000286 1.3999999999999905e-05 5.5999999999996794e-05 0.0040000000000000001 0.001 -0.002 0 0 0 0 0 0 0 1 0 0
711 1 1.1593697948416613e-06 5.7968489742083063e-07 8.1595191631301581e-16 2.0000000000002871e-05 2.2000000000001046e-05 6.3999999999997463e-05 0.00010000000000000286 2.2000000000001046e-05 -1.600000000000253e-05 0.0040000000000000001 0.001 -0.002 0 0 0 0 0 0 0 1 0 -1
712 1 1.6556612238309644e-06 8.2783061191548222e-07 2.3763644951435674e-15 2.0000000000002871e-05 2.2000000000001046e-05 7.1999999999998809e-05 0.00010000000000000286 2.2000000000001046e-05 -8.0000000000011838e-06 0.0040000000000000001 0.001 -0.002 0 0 0 0 0 0 0 1 0 -1
713 1 2.2737256392686033e-06 1.1368628196343017e-06 6.1547837642559286e-15 2.0000000000002871e-05 2.2000000000001046e-05 1.6970437447137916e-19 0.00010000000000000286 2.2000000000001046e-05 1.6970437447137916e-19 0.0040000000000000001 0.001 -0.002 0 0 0 0 0 0 0 1 0 0
714 1 1.2045144909072522e-06 6.0225724545362612e-07 9.1502868684585035e-16 2.0000000000002871e-05 2.2000000000001046e-05 8.0000000000001911e-06 0.00010000000000000286 2.2000000000001046e-05 8.0000000000001911e-06 0.0040000000000000001 0.001 -0.002 0 0 0 0 0 0 0 1 0 0
715 1 2.1874652055243762e-06 1.0937326027621881e-06 5.4805239946630604e-15 2.0000000000002871e-05 2.2000000000001046e-05 1.5999999999999264e-05 0.00010000000000000286 2.2000000000001046e-05 1.5999999999999264e-05 0.0040000000000000001 0.001 -0.002 0 0 0 0 0 0 0 1 0 0
716 1 1.6049748769455533e-06 8.0248743847277663e-07 2.1647280185337607e-15 2.0000000000002871e-05 2.2000000000001046e-05 2.3999999999997907e-05 0.00010000000000000286 2.2000000000001046e-05 2.3999999999997907e-05 0.0040000000000000001 0.001 -0.002 0 0 0 0 0 0 0 1 0 0
717 1 2.3031826802461906e-06 1.1515913401230953e-06 6.3971094371021065e-15 2.0000000000002871e-05 2.2000000000001046e-05 3.19999999999968e-05 0.00010000000000000286 2.2000000000001046e-05 3.19999999999968e-05 0.0040000000000000001 0.001 -0.002 0 0 0 0 0 0 0 1 0 0
718 1 1.4889019638894503e-06 7.4445098194472516e-07 1.7282116586369541e-15 2.0000000000002871e-05 2.2000000000001046e-05 3.9999999999996798e-05 0.00010000000000000286 2.2000000000001046e-05 3.9999999999996798e-05 0.0040000000000000001 0.001 -0.002 0 0 0 0 0 0 0 1 0 0
719 1 1.7137710526539023e-06 8.5688552632695113e-07 2.635463652557675e-15 2.0000000000002871e-05 2.2000000000001046e-05 4.7999999999996803e-05 0.00010000000000000286 2.2000000000001046e-05 4.7999999999996803e-05 0.0040000000000000001 0.001 -0.002 0 0 0 0 0 0 0 1 0 0
720 1 1.1844518270333988e-06 5.9222591351669942e-07 8.7006325736010221e-16 2.0000000000002871e-05 2.2000000000001046e-05 5.5999999999996794e-05 0.00010000000000000286 2.2000000000001046e-05 5.5999999999996794e-05 0.0040000000000000001 0.001 -0.002 0 0 0 0 0 0 0 1 0 0
721 1 1.385016899790851e-06 6.9250844989542551e-07 1.3911175840014355e-15 2.0000000000002871e-05 3.0000000000001597e-05 6.3999999999997463e-05 0.00010000000000000286 3.0000000000001597e-05 -1.600000000000253e-05 0.0040000000000000001 0.001 -0.002 0 0 0 0 0 0 0 1 0 -1
722 1 1.9345782477703579e-06 9.6728912388517894e-07 3.7910326362396806e-15 2.0000000000002871e-05 3.0000000000001597e-05 7.1999999999998809e-05 0.00010000000000000286 3.0000000000001597e-05 -8.0000000000011838e-06 0.0040000000000000001 0.001 -0.002 0 0 0 0 0 0 0 1 0 -1
723 1 1.2200530974188271e-06 6.1002654870941353e-07 9.5089993522060371e-16 2.0000000000002871e-05 3.0000000000001597e-05 1.6970437447137916e-19 0.00010000000000000286 3.0000000000001597e-05 1.6970437447137916e-19 0.0040000000000000001 0.001 -0.002 0 0 0 0 0 0 0 1 0 0
724 1 2.1089078092959263e-06 1.0544539046479632e-06 4.9110166591529792e-15 2.0000000000002871e-05 3.0000000000001597e-05 8.0000000000001911e-06 0.00010000000000000286 3.0000000000001597e-05 8.0000000000001911e-06 0.0040000000000000001 0.001 -0.002 0 0 0 0 0 0 0 1 0 0
725 1 1.4484811065613658e-06 7.2424055328068292e-07 1.5912452736854331e-15 2.0000000000002871e-05 3.0000000000001597e-05 1.5999999999999264e-05 0.00010000000000000286 3.0000000000001597e-05 1.5999999999999264e-05 0.0040000000000000001 0.001 -0.002 0 0 0 0 0 0 0 1 0 0
726 1 2.4090112536402855e-06 1.2045056268201428e-06 7.3200678860649924e-15 2.0000000000002871e-05 3.0000000000001597e-05 2.3999999999997907e-05 0.00010000000000000286 3.0000000000001597e-05 2.3999999999997907e-05 0.0040000000000000001 0.001 -0.002 0 0 0 0 0 0 0 1 0 0
727 1 2.4971849298646452e-06 1.2485924649323226e-06 8.1536250905254516e-15 2.0000000000002871e-05 3.0000000000001597e-05 3.19999999999968e-05 0.00010000000000000286 3.0000000000001597e-05 3.19999999999968e-05 0.0040000000000000001 0.001 -0.002 0 0 0 0 0 0 0 1 0 0
728 1 2.7154537107116526e-06 1.3577268553558263e-06 1.048397155941605e-14 2.0000000000002871e-05 3.0000000000001597e-05 3.9999999999996798e-05 0.00010000000000000286 3.0000000000001597e-05 3.9999999999996798e-05 0.0040000000000000001 0.001 -0.002 0 0 0 0 0 0 0 1 0 0
729 1 1.716099754845972e-06 8.5804987742298598e-07 2.6462216002447941e-15 2.0000000000002871e-05 3.0000000000001597e-05 4.7999999999996803e-05 0.00010000000000000286 3.0000000000001597e-05 4.7999999999996803e-05 0.0040000000000000001 0.001 -0.002 0 0 0 0 0 0 0 1 0 0
730 1 1.6712217071459777e-06 8.3561085357298886e-07 2.4439978876821451e-15 2.0000000000002871e-05 3.0000000000001597e-05 5.5999999999996794e-05 0.00010000000000000286 3.0000000000001597e-05 5.5999999999996794e-05 0.0040000000000000001 0.001 -0.002 0 0 0 0 0 0 0 1 0 0
731 1 2.0305918319884428e-06 1.0152959159942214e-06 4.3839594360001073e-15 2.0000000000002871e-05 3.8000000000001595e-05 6.3999999999997463e-05 0.00010000000000000286 3.8000000000001595e-05 -1.600000000000253e-05 0.0040000000000000001 0.001 -0.002 0 0 0 0 0 0 0 1 0 -1
732 1 2.2461037040842089e-06 1.1230518520421045e-06 5.9331869723217733e-15 2.0000000000002871e-05 3.8000000000001595e-05 7.1999999999998809e-05 0.00010000000000000286 3.8000000000001595e-05 -8.0000000000011838e-06 0.0040000000000000001 0.001 -0.002 0 0 0 0 0 0 0 1 0 -1
733 1 2.4965846924147e-06 1.24829234620735e-06 8.1477469497537323e-15 2.0000000000002871e-05 3.8000000000001595e-05 1.6970437447137916e-19 0.00010000000000000286 3.8000000000001595e-05 1.6970437447137916e-19 0.0040000000000000001 0.001 -0.002 0 0 0 0 0 0 0 1 0 0
734 1 2.0222476513208811e-06 1.0111238256604406e-06 4.3301370427559175e-15 2.0000000000002871e-05 3.8000000000001595e-05 8.0000000000001911e-06 0.00010000000000000286 3.8000000000001595e-05 8.0000000000001911e-06 0.0040000000000000001 0.001 -0.002 0 0 0 0 0 0 0 1 0 0
735 1 2.336580881486613e-06 1.1682904407433065e-06 6.6794557778176635e-15 2.0000000000002871e-05 3.8000000000001595e-05 1.5999999999999264e-05 0.00010000000000000286 3.8000000000001595e-05 1.5999999999999264e-05 0.0040000000000000001 0.001 -0.002 0 0 0 0 0 0 0 1 0 0
736 1 1.2142167202499756e-06 6.0710836012498778e-07 9.3731863040816656e-16 2.0000000000002871e-05 3.8000000000001595e-05 2.3999999999997907e-05 0.00010000000000000286 3.8000000000001595e-05 2.3999999999997907e-05 0.0040000000000000001 0.001 -0.002 0 0 0 0 0 0 0 1 0 0
737 1 1.4808852589149618e-06 7.4044262945748089e-07 1.700446030002066e-15 2.0000000000002871e-05 3.8000000000001595e-05 3.19999999999968e-05 0.00010000000000000286 3.8000000000001595e-05 3.19999999999968e-05 0.0040000000000000001 0.001 -0.002 0 0 0 0 0 0 0 1 0 0
738 1 2.0264565870282491e-06 1.0132282935141246e-06 4.3572305007578128e-15 2.0000000000002871e-05 3.8000000000001595e-05 3.9999999999996798e-05 0.00010000000000000286 3.8000000000001595e-05 3.9999999999996798e-05 0.0040000000000000001 0.001 -0.002 0 0 0 0 0 0 0 1 0 0
739 1 1.3383295912860168e-06 6.6916479564300841e-07 1.2551275547255758e-15 2.0000000000002871e-05 3.8000000000001595e-05 4.7999999999996803e-05 0.00010000000000000286 3.8000000000001595e-05 4.7999999999996803e-05 0.0040000000000000001 0.001 -0.002 0 0 0 0 0 0 0 1 0 0
740 1 2.1060461686245492e-06 1.0530230843122746e-06 4.8910520539674214e-15 2.0000000000002871e-05 3.8000000000001595e-05 5.5999999999996794e-05 0.00010000000000000286 3.8000000000001595e-05 5.5999999999996794e-05 0.0040000000000000001 0.001 -0.002 0 0 0 0 0 0 0 1 0 0
741 1 2.1770262669015563e-06 1.0885131334507782e-06 5.402435984459412e-15 2.0000000000002871e-05 4.6000000000001599e-05 6.3999999999997463e-05 0.00010000000000000286 4.6000000000001599e-05 -1.600000000000253e-05 0.0040000000000000001 0.001 -0.002 0 0 0 0 0 0 0 1 0 -1
742 1 2.0970958217559652e-06 1.0485479108779826e-06 4.8289582120166841e-15 2.0000000000002871e-05 4.6000000000001599e-05 7.1999999999998809e-05 0.00010000000000000286 4.6000000000001599e-05 -8.0000000000011838e-06 0.0040000000000000001 0.001 -0.002 0 0 0 0 0 0 0 1 0 -1
743 1 2.5974689743402299e-06 1.2987344871701149e-06 9.1759223278811044e-15 2.0000000000002871e-05 4.6000000000001599e-05 1.6970437447137916e-19 0.00010000000000000286 4.6000000000001599e-05 1.6970437447137916e-19 0.0040000000000000001 0.001 -0.002 0 0 0 0 0 0 0 1 0 0
744 1 3.5466683899240133e-06 1.7733341949620066e-06 2.3359329625264837e-14 2.0000000000002871e-05 4.6000000000001599e-05 8.0000000000001911e-06 0.00010000000000000286 4.6000000000001599e-05 8.0000000000001911e-06 0.0040000000000000001 0.001 -0.002 0 0 0 0 0 0 0 1 0 0
745 1 4.5893607224627791e-06 2.2946803612313895e-06 5.0612198852737914e-14 2.0000000000002871e-05 4.6000000000001599e-05 1.5999999999999264e-05 0.00010000000000000286 4.6000000000001599e-05 1.5999999999999264e-05 0.0040000000000000001 0.001 -0.002 0 0 0 0 0 0 0 1 0 0
746 1 1.6762943951784352e-06 8.3814719758921758e-07 2.4663204334404178e-15 2.0000000000002871e-05 4.6000000000001599e-05 2.3999999999997907e-05 0.00010000000000000286 4.6000000000001599e-05 2.3999999999997907e-05 0.0040000000000000001 0.001 -0.002 0 0 0 0 0 0 0 1 0 0
747 1 1.7726162596533042e-06 8.8630812982665211e-07 2.9163712497558103e-15 2.0000000000002871e-05 4.6000000000001599e-05 3.19999999999968e-05 0.00010000000000000286 4.6000000000001599e-05 3.19999999999968e-05 0.0040000000000000001 0.001 -0.002 0 0 0 0 0 0 0 1 0 0
748 1 3.3042376300234713e-06 1.6521188150117356e-06 1.8889151104083482e-14 2.0000000000002871e-05 4.6000000000001599e-05 3.9999999999996798e-05 0.00010000000000000286 4.6000000000001599e-05 3.9999999999996798e-05 0.0040000000000000001 0.001 -0.002 0 0 0 0 0 0 0 1 0 0
749 1 2.7309278275685334e-06 1.3654639137842667e-06 1.0664224787210206e-14 2.0000000000002871e-05 4.6000000000001599e-05 4.7999999999996803e-05 0.00010000000000000286 4.6000000000001599e-05 4.7999999999996803e-05 0.0040000000000000001 0.001 -0.002 0 0 0 0 0 0 0 1 0 0
750 1 1.7173199195431874e-06 8.586599597715937e-07 2.651870087358871e-15 2.0000000000002871e-05 4.6000000000001599e-05 5.5999999999996794e-05 0.00010000000000000286 4.6000000000001599e-05 5.5999999999996794e-05 0.0040000000000000001 0.001 -0.002 0 0 0 0 0 0 0 1 0 0
751 1 2.1650139311035924e-06 1.0825069655517962e-06 5.3135002824743151e-15 2.0000000000002871e-05 5.4000000000001597e-05 6.3999999999997463e-05 0.00010000000000000286 5.4000000000001597e-05 -1.600000000000253e-05 0.0040000000000000001 0.001 -0.002 0 0 0 0 0 0 0 1 0 -1
752 1 1.5362327843793296e-06 7.6811639218966482e-07 1.8983212506869356e-15 2.0000000000002871e-05 5.4000000000001597e-05 7.1999999999998809e-05 0.00010000000000000286 5.4000000000001597e-05 -8.0000000000011838e-06 0.0040000000000000001 0.001 -0.002 0 0 0 0 0 0 0 1 0 -1
753 1 1.7308241266008812e-06 8.6541206330044061e-07 2.7149225414703573e-15 2.0000000000002871e-05 5.4000000000001597e-05 1.6970437447137916e-19 0.00010000000000000286 5.4000000000001597e-05 1.6970437447137916e-19 0.0040000000000000001 0.001 -0.002 0 0 0 0 0 0 0 1 0 0
754 1 1.1278931901039056e-06 5.6394659505195282e-07 7.5128124262723658e-16 2.0000000000002871e-05 5.4000000000001597e-05 8.0000000000001911e-06 0.00010000000000000286 5.4000000000001597e-05 8.0000000000001911e-06 0.0040000000000000001 0.001 -0.002 0 0 0 0 0 0 0 1 0 0
755 1 1.9168897420915758e-06 9.5844487104578789e-07 3.6879924417014221e-15 2.0000000000002871e-05 5.4000000000001597e-05 1.5999999999999264e-05 0.00010000000000000286 5.4000000000001597e-05 1.5999999999999264e-05 0.0040000000000000001 0.001 -0.002 0 0 0 0 0 0 0 1 0 0
756 1 2.0393994498527419e-06 1.0196997249263709e-06 4.4412530193137466e-15 2.0000000000002871e-05 5.4000000000001597e-05 2.3999999999997907e-05 0.00010000000000000286 5.4000000000001597e-05 2.3999999999997907e-05 0.0040000000000000001 0.001 -0.002 0 0 0 0 0 0 0 1 0 0
757 1 1.7839041581741788e-06 8.919520790870894e-07 2.9724405392783944e-15 2.0000000000002871e-05 5.4000000000001597e-05 3.19999999999968e-05 0.00010000000000000286 5.4000000000001597e-05 3.19999999999968e-05 0.0040000000000000001 0.001 -0.002 0 0 0 0 0 0 0 1 0 0
758 1 1.6221142526688932e-06 8.1105712633444658e-07 2.2348220258187172e-15 2.0000000000002871e-05 5.4000000000001597e-05 3.9999999999996798e-05 0.00010000000000000286 5.4000000000001597e-05 3.9999999999996798e-05 0.0040000000000000001 0.001 -0.002 0 0 0 0 0 0 0 1 0 0
759 1 1.4743611266344044e-06 7.3718056331720221e-07 1.6780706335518608e-15 2.0000000000002871e-05 5.4000000000001597e-05 4.7999999999996803e-05 0.00010000000000000286 5.4000000000001597e-05 4.7999999999996803e-05 0.0040000000000000001 0.001 -0.002 0 0 0 0 0 0 0 1 0 0
760 1 1.6266877295942344e-06 8.1334386479711718e-07 2.2537783072517076e-15 2.0000000000002871e-05 5.4000000000001597e-05 5.5999999999996794e-05 0.00010000000000000286 5.4000000000001597e-05 5.5999999999996794e-05 0.0040000000000000001 0.001 -0.002 0 0 0 0 0 0 0 1 0 0
761 1 2.7552608921004557e-06 1.3776304460502278e-06 1.0951832830282469e-14 2.0000000000002871e-05 6.2000000000000938e-05 6.3999999999997463e-05 0.00010000000000000286 6.2000000000000938e-05 -1.600000000000253e-05 0.0040000000000000001 0.001 -0.002 0 0 0 0 0 0 0 1 0 -1
762 1 1.7268210121095257e-06 8.6341050605476286e-07 2.6961285541521648e-15 2.0000000000002871e-05 6.2000000000000938e-05 7.1999999999998809e-05 0.00010000000000000286 6.2000000000000938e-05 -8.0000000000011838e-06 0.0040000000000000001 0.001 -0.002 0 0 0 0 0 0 0 1 0 -1
763 1 1.9581759478606768e-06 9.7908797393033839e-07 3.9314590631542141e-15 2.0000000000002871e-05 6.2000000000000938e-05 1.6970437447137916e-19 0.00010000000000000286 6.2000000000000938e-05 1.6970437447137916e-19 0.0040000000000000001 0.001 -0.002 0 0 0 0 0 0 0 1 0 0
764 1 2.180553341506737e-06 1.0902766707533685e-06 5.4287365620675876e-15 2.0000000000002871e-05 6.2000000000000938e-05 8.0000000000001911e-06 0.00010000000000000286 6.2000000000000938e-05 8.0000000000001911e-06 0.0040000000000000001 0.001 -0.002 0 0 0 0 0 0 0 1 0 0
765 1 2.0337594928250431e-06 1.0168797464125215e-06 4.4045079836579762e-15 2.0000000000002871e-05 6.2000000000000938e-05 1.5999999999999264e-05 0.00010000000000000286 6.2000000000000938e-05 1.5999999999999264e-05 0.0040000000000000001 0.001 -0.002 0 0 0 0 0 0 0 1 0 0
766 1 1.4617052432430904e-06 7.3085262162154519e-07 1.6352269525223324e-15 2.0000000000002871e-05 6.2000000000000938e-05 2.3999999999997907e-05 0.00010000000000000286 6.2000000000000938e-05 2.3999999999997907e-05 0.0040000000000000001 0.001 -0.002 0 0 0 0 0 0 0 1 0 0
767 1 2.6370648215127979e-06 1.3185324107563989e-06 9.6019853313274562e-15 2.0000000000002871e-05 6.2000000000000938e-05 3.19999999999968e-05 0.00010000000000000286 6.2000000000000938e-05 3.19999999999968e-05 0.0040000000000000001 0.001 -0.002 0 0 0 0 0 0 0 1 0 0
768 1 1.6519328755848089e-06 8.2596643779240443e-07 2.3603467655609444e-15 2.0000000000002871e-05 6.2000000000000938e-05 3.9999999999996798e-05 0.00010000000000000286 6.2000000000000938e-05 3.9999999999996798e-05 0.0040000000000000001 0.001 -0.002 0 0 0 0 0 0 0 1 0 0
769 1 3.0528928760913762e-06 1.5264464380456881e-06 1.4898183485468539e-14 2.0000000000002871e-05 6.2000000000000938e-05 4.7999999999996803e-05 0.00010000000000000286 6.2000000000000938e-05 4.7999999999996803e-05 0.0040000000000000001 0.001 -0.002 0 0 0 0 0 0 0 1 0 0
770 1 2.5389685175703905e-06 1.2694842587851953e-06 8.5697976932393013e-15 2.0000000000002871e-05 6.2000000000000938e-05 5.5999999999996794e-05 0.00010000000000000286 6.2000000000000938e-05 5.5999999999996794e-05 0.0040000000000000001 0.001 -0.002 0 0 0 0 0 0 0 1 0 0
771 1 1.5813432220978669e-06 7.9067161104893346e-07 2.0705086380298444e-15 2.0000000000002871e-05 6.9999999999995522e-05 6.3999999999997463e-05 0.00010000000000000286 6.9999999999995522e-05 -1.600000000000253e-05 0.0040000000000000001 0.001 -0.002 0 0 0 0 0 0 0 1 0 -1
772 1 1.1189251942524058e-06 5.5946259712620289e-07 7.3350280762617778e-16 2.0000000000002871e-05 6.9999999999995522e-05 7.1999999999998809e-05 0.00010000000000000286 6.9999999999995522e-05 -8.0000000000011838e-06 0.0040000000000000001 0.001 -0.002 0 0 0 0 0 0 0 1 0 -1
773 1 1.7585944755135279e-06 8.7929723775676393e-07 2.8477098397808678e-15 2.0000000000002871e-05 6.9999999999995522e-05 1.6970437447137916e-19 0.00010000000000000286 6.9999999999995522e-05 1.6970437447137916e-19 0.0040000000000000001 0.001 -0.002 0 0 0 0 0 0 0 1 0 0
774 1 2.2434598804216678e-06 1.1217299402108339e-06 5.9122602758770069e-15 2.0000000000002871e-05 6.9999999999995522e-05 8.0000000000001911e-06 0.00010000000000000286 6.9999999999995522e-05 8.0000000000001911e-06 0.0040000000000000001 0.001 -0.002 0 0 0 0 0 0 0 1 0 0
775 1 1.5339200486987595e-06 7.6696002434937977e-07 1.8897606161059535e-15 2.0000000000002871e-05 6.9999999999995522e-05 1.5999999999999264e-05 0.00010000000000000286 6.9999999999995522e-05 1.5999999999999264e-05 0.0040000000000000001 0.001 -0.002 0 0 0 0 0 0 0 1 0 0
776 1 1.9445762681758477e-06 9.7228813408792386e-07 3.850113797645011e-15 2.0000000000002871e-05 6.9999999999995522e-05 2.3999999999997907e-05 0.00010000000000000286 6.9999999999995522e-05 2.3999999999997907e-05 0.0040000000000000001 0.001 -0.002 0 0 0 0 0 0 0 1 0 0
777 1 2.049314681257328e-06 1.024657340628664e-06 4.5063464387030742e-15 2.0000000000002871e-05 6.9999999999995522e-05 3.19999999999968e-05 0.00010000000000000286 6.9999999999995522e-05 3.19999999999968e-05 0.0040000000000000001 0.001 -0.002 0 0 0 0 0 0 0 1 0 0
778 1 1.5376994134932351e-06 7.6884970674661756e-07 1.9037633791409725e-15 2.0000000000002871e-05 6.9999999999995522e-05 3.9999999999996798e-05 0.00010000000000000286 6.9999999999995522e-05 3.9999999999996798e-05 0.0040000000000000001 0.001 -0.002 0 0 0 0 0 0 0 1 0 0
779 1 1.0614591727158896e-06 5.3072958635794482e-07 6.2619342827835042e-16 2.0000000000002871e-05 6.9999999999995522e-05 4.7999999999996803e-05 0.00010000000000000286 6.9999999999995522e-05 4.7999999999996803e-05 0.0040000000000000001 0.001 -0.002 0 0 0 0 0 0 0 1 0 0
780 1 2.0660791952316267e-06 1.0330395976158133e-06 4.6178467472562208e-15 2.0000000000002871e-05 6.9999999999995522e-05 5.5999999999996794e-05 0.00010000000000000286 6.9999999999995522e-05 5.5999999999996794e-05 0.0040000000000000001 0.001 -0.002 0 0 0 0 0 0 0 1 0 0
781 1 2.3227626181699861e-06 1.1613813090849931e-06 6.5616506808162994e-15 2.0000000000002871e-05 7.7999999999994822e-05 6.3999999999997463e-05 0.00010000000000000286 7.7999999999994822e-05 -1.600000000000253e-05 0.0040000000000000001 0.001 -0.002 0 0 0 0 0 0 0 1 0 -1
782 1 1.5190623597350217e-06 7.5953117986751083e-07 1.8353776137293986e-15 2.0000000000002871e-05 7.7999999999994822e-05 7.1999999999998809e-05 0.00010000000000000286 7.7999999999994822e-05 -8.0000000000011838e-06 0.0040000000000000001 0.001 -0.002 0 0 0 0 0 0 0 1 0 -1
783 1 2.699437034821662e-06 1.349718517410831e-06 1.0299549470661051e-14 2.0000000000002871e-05 7.7999999999994822e-05 1.6970437447137916e-19 0.00010000000000000286 7.7999999999994822e-05 1.6970437447137916e-19 0.0040000000000000001 0.001 -0.002 0 0 0 0 0 0 0 1 0 0
784 1 1.5148444033234729e-06 7.5742220166173645e-07 1.8201312346712032e-15 2.0000000000002871e-05 7.7999999999994822e-05 8.0000000000001911e-06 0.00010000000000000286 7.7999999999994822e-05 8.0000000000001911e-06 0.0040000000000000001 0.001 -0.002 0 0 0 0 0 0 0 1 0 0
785 1 1.8836748284497417e-06 9.4183741422487085e-07 3.4995840245434606e-15 2.0000000000002871e-05 7.7999999999994822e-05 1.5999999999999264e-05 0.00010000000000000286 7.7999999999994822e-05 1.5999999999999264e-05 0.0040000000000000001 0.001 -0.002 0 0 0 0 0 0 0 1 0 0
786 1 3.5722541467008444e-06 1.7861270733504222e-06 2.3868529815525445e-14 2.0000000000002871e-05 7.7999999999994822e-05 2.3999999999997907e-05 0.00010000000000000286 7.7999999999994822e-05 2.3999999999997907e-05 0.0040000000000000001 0.001 -0.002 0 0 0 0 0 0 0 1 0 0
787 1 1.2761988377488102e-06 6.3809941887440512e-07 1.0883125983635456e-15 2.0000000000002871e-05 7.7999999999994822e-05 3.19999999999968e-05 0.00010000000000000286 7.7999999999994822e-05 3.19999999999968e-05 0.0040000000000000001 0.001 -0.002 0 0 0 0 0 0 0 1 0 0
788 1 3.5243670199958282e-06 1.7621835099979141e-06 2.2921445811873284e-14 2.0000000000002871e-05 7.7999999999994822e-05 3.9999999999996798e-05 0.00010000000000000286 7.7999999999994822e-05 3.9999999999996798e-05 0.0040000000000000001 0.001 -0.002 0 0 0 0 0 0 0 1 0 0
789 1 2.5977783379038396e-06 1.2988891689519198e-06 9.1792013285156449e-15 2.0000000000002871e-05 7.7999999999994822e-05 4.7999999999996803e-05 0.00010000000000000286 7.7999999999994822e-05 4.7999999999996803e-05 0.0040000000000000001 0.001 -0.002 0 0 0 0 0 0 0 1 0 0
790 1 1.4013738423067087e-06 7.0068692115335437e-07 1.4409889241426857e-15 2.0000000000002871e-05 7.7999999999994822e-05 5.5999999999996794e-05 0.00010000000000000286 7.7999999999994822e-05 5.5999999999996794e-05 0.0040000000000000001 0.001 -0.002 0 0 0 0 0 0 0 1 0 0
791 1 1.8485143875476487e-06 9.2425719377382434e-07 3.3072507819815824e-15 2.0000000000002871e-05 5.9999999999978741e-06 6.3999999999997463e-05 0.00010000000000000286 8.5999999999997862e-05 -1.600000000000253e-05 0.0040000000000000001 0.001 -0.002 0 0 0 0 0 0 0 1 1 -1
792 1 4.1753175571366431e-06 2.0876587785683215e-06 3.8112475429133217e-14 2.0000000000002871e-05 5.9999999999978741e-06 7.1999999999998809e-05 0.00010000000000000286 8.5999999999997862e-05 -8.0000000000011838e-06 0.0040000000000000001 0.001 -0.002 0 0 0 0 0 0 0 1 1 -1
793 1 1.3624681902055938e-06 6.8123409510279692e-07 1.3242736474926737e-15 2.0000000000002871e-05 5.9999999999978741e-06 1.6970437447137916e-19 0.00010000000000000286 8.5999999999997862e-05 1.6970437447137916e-19 0.0040000000000000001 0.001 -0.002 0 0 0 0 0 0 0 1 1 0
794 1 2.8903214422210906e-06 1.4451607211105453e-06 1.2642619187896553e-14 2.0000000000002871e-05 5.9999999999978741e-06 8.0000000000001911e-06 0.00010000000000000286 8.5999999999997862e-05 8.0000000000001911e-06 0.0040000000000000001 0.001 -0.002 0 0 0 0 0 0 0 1 1 0
795 1 2.6533692118263104e-06 1.3266846059131552e-06 9.7811896333089804e-15 2.0000000000002871e-05 5.9999999999978741e-06 1.5999999999999264e-05 0.00010000000000000286 8.5999999999997862e-05 1.5999999999999264e-05 0.0040000000000000001 0.001 -0.002 0 0 0 0 0 0 0 1 1 0
796 1 1.7191103923821563e-06 8.5955519619107813e-07 2.6601732346998852e-15 2.0000000000002871e-05 5.9999999999978741e-06 2.3999999999997907e-05 0.00010000000000000286 8.5999999999997862e-05 2.3999999999997907e-05 0.0040000000000000001 0.001 -0.002 0 0 0 0 0 0 0 1 1 0
797 1 1.0704146676128263e-06 5.3520733380641316e-07 6.4217704408650031e-16 2.0000000000002871e-05 5.9999999999978741e-06 3.19999999999968e-05 0.00010000000000000286 8.5999999999997862e-05 3.19999999999968e-05 0.0040000000000000001 0.001 -0.002 0 0 0 0 0 0 0 1 1 0
798 1 2.0211898359764336e-06 1.0105949179882168e-06 4.3233454564420507e-15 2.0000000000002871e-05 5.9999999999978741e-06 3.9999999999996798e-05 0.00010000000000000286 8.5999999999997862e-05 3.9999999999996798e-05 0.0040000000000000001 0.001 -0.002 0 0 0 0 0 0 0 1 1 0
799 1 1.6355903688007808e-06 8.1779518440039039e-07 2.2909850539784708e-15 2.0000000000002871e-05 5.9999999999978741e-06 4.7999999999996803e-05 0.00010000000000000286 8.5999999999997862e-05 4.7999999999996803e-05 0.0040000000000000001 0.001 -0.002 0 0 0 0 0 0 0 1 1 0
800 1 1.3078383818334207e-06 6.5391919091671035e-07 1.1712803526162399e-15 2.0000000000002871e-05 5.9999999999978741e-06 5.5999999999996794e-05 0.00010000000000000286 8.5999999999997862e-05 5.5999999999996794e-05 0.0040000000000000001 0.001 -0.002 0 0 0 0 0 0 0 1 1 0
801 1 1.6847352514161306e-06 8.4236762570806529e-07 2.5037652742692566e-15 2.8000000000001697e-05 1.3999999999999905e-05 6.3999999999997463e-05 0.00010800000000000169 1.3999999999999905e-05 -1.600000000000253e-05 0.0040000000000000001 0.001 -0.002 0 0 0 0 0 0 0 1 0 -1
802 1 2.3787853625234579e-06 1.189392681261729e-06 7.0479756461952345e-15 2.8000000000001697e-05 1.3999999999999905e-05 7.1999999999998809e-05 0.00010800000000000169 1.3999999999999905e-05 -8.0000000000011838e-06 0.0040000000000000001 0.001 -0.002 0 0 0 0 0 0 0 1 0 -1
803 1 1.943078700492453e-06 9.715393502462265e-07 3.8412254343944407e-15 2.8000000000001697e-05 1.3999999999999905e-05 1.6970437447137916e-19 0.00010800000000000169 1.3999999999999905e-05 1.6970437447137916e-19 0.0040000000000000001 0.001 -0.002 0 0 0 0 0 0 0 1 0 0
804 1 2.2057936717178758e-06 1.1028968358589379e-06 5.6194431450948967e-15 2.8000000000001697e-05 1.3999999999999905e-05 8.0000000000001911e-06 0.00010800000000000169 1.3999999999999905e-05 8.0000000000001911e-06 0.0040000000000000001 0.001 -0.002 0 0 0 0 0 0 0 1 0 0
805 1 1.3460366328612695e-06 6.7301831643063473e-07 1.2769363819640837e-15 2.8000000000001697e-05 1.3999999999999905e-05 1.5999999999999264e-05 0.00010800000000000169 1.3999999999999905e-05 1.5999999999999264e-05 0.0040000000000000001 0.001 -0.002 0 0 0 0 0 0 0 1 0 0
806 1 2.2434739418776786e-06 1.1217369709388393e-06 5.9123714463636139e-15 2.8000000000001697e-05 1.3999999999999905e-05 2.3999999999997907e-05 0.00010800000000000169 1.3999999999999905e-05 2.3999999999997907e-05 0.0040000000000000001 0.001 -0.002 0 0 0 0 0 0 0 1 0 0
807 1 2.0176363215960079e-06 1.0088181607980039e-06 4.3005825142384034e-15 2.8000000000001697e-05 1.3999999999999905e-05 3.19999999999968e-05 0.00010800000000000169 1.3999999999999905e-05 3.19999999999968e-05 0.0040000000000000001 0.001 -0.002 0 0 0 0 0 0 0 1 0 0
808 1 1.3531828733398155e-06 6.7659143666990774e-07 1.2973826916497153e-15 2.8000000000001697e-05 1.3999999999999905e-05 3.9999999999996798e-05 0.00010800000000000169 1.3999999999999905e-05 3.9999999999996798e-05 0.0040000000000000001 0.001 -0.002 0 0 0 0 0 0 0 1 0 0
809 1 2.119431896079564e-06 1.059715948039782e-06 4.9849065365289345e-15 2.8000000000001697e-05 1.3999999999999905e-05 4.7999999999996803e-05 0.00010800000000000169 1.3999999999999905e-05 4.7999999999996803e-05 0.0040000000000000001 0.001 -0.002 0 0 0 0 0 0 0 1 0 0
810 1 2.6845650867363057e-06 1.3422825433681529e-06 1.0130256355817305e-14 2.8000000000001697e-05 1.3999999999999905e-05 5.5999999999996794e-05 0.00010800000000000169 1.3999999999999905e-05 5.5999999999996794e-05 0.0040000000000000001 0.001 -0.002 0 0 0 0 0 0 0 1 0 0
811 1 2.905869382720685e-06 1.4529346913603425e-06 1.2847744449287464e-14 2.8000000000001697e-05 2.2000000000001046e-05 6.3999999999997463e-05 0.00010800000000000169 2.2000000000001046e-05 -1.600000000000253e-05 0.0040000000000000001 0.001 -0.002 0 0 0 0 0 0 0 1 0 -1
812 1 1.2852466032117849e-06 6.4262330160589244e-07 1.1116242608044375e-15 2.8000000000001697e-05 2.2000000000001046e-05 7.1999999999998809e-05 0.00010800000000000169 2.2000000000001046e-05 -8.0000000000011838e-06 0.0040000000000000001 0.001 -0.002 0 0 0 0 0 0 0 1 0 -1
813 1 2.0763710029073626e-06 1.0381855014536813e-06 4.6872000316499295e-15 2.8000000000001697e-05 2.2000000000001046e-05 1.6970437447137916e-19 0.00010800000000000169 2.2000000000001046e-05 1.6970437447137916e-19 0.0040000000000000001 0.001 -0.002 0 0 0 0 0 0 0 1 0 0
814 1 2.2876533486009024e-06 1.1438266743004512e-06 6.2685814015674449e-15 2.8000000000001697e-05 2.2000000000001046e-05 8.0000000000001911e-06 0.00010800000000000169 2.2000000000001046e-05 8.0000000000001911e-06 0.0040000000000000001 0.001 -0.002 0 0 0 0 0 0 0 1 0 0
815 1 2.968245118011497e-06 1.4841225590057485e-06 1.3692977950859084e-14 2.8000000000001697e-05 2.2000000000001046e-05 1.5999999999999264e-05 0.00010800000000000169 2.2000000000001046e-05 1.5999999999999264e-05 0.0040000000000000001 0.001 -0.002 0 0 0 0 0 0 0 1 0 0
816 1 1.9007028359084277e-06 9.5035141795421384e-07 3.5953509598437339e-15 2.8000000000001697e-05 2.2000000000001046e-05 2.3999999999997907e-05 0.00010800000000000169 2.2000000000001046e-05 2.3999999999997907e-05 0.0040000000000000001 0.001 -0.002 0 0 0 0 0 0 0 1 0 0
817 1 1.6288799676825254e-06 8.1443998384126272e-07 2.262902640351679e-15 2.8000000000001697e-05 2.2000000000001046e-05 3.19999999999968e-05 0.00010800000000000169 2.2000000000001046e-05 3.19999999999968e-05 0.0040000000000000001 0.001 -0.002 0 0 0 0 0 0 0 1 0 0
818 1 2.736401659768305e-06 1.3682008298841525e-06 1.0728479058924692e-14 2.8000000000001697e-05 2.2000000000001046e-05 3.9999999999996798e-05 0.00010800000000000169 2.2000000000001046e-05 3.9999999999996798e-05 0.0040000000000000001 0.001 -0.002 0 0 0 0 0 0 0 1 0 0
819 1 2.1542326982773938e-06 1.0771163491386969e-06 5.2345151740538945e-15 2.8000000000001697e-05 2.2000000000001046e-05 4.7999999999996803e-05 0.00010800000000000169 2.2000000000001046e-05 4.7999999999996803e-05 0.0040000000000000001 0.001 -0.002 0 0 0 0 0 0 0 1 0 0
820 1 3.7742637648062143e-06 1.8871318824031071e-06 2.8151099715457136e-14 2.8000000000001697e-05 2.2000000000001046e-05 5.5999999999996794e-05 0.00010800000000000169 2.2000000000001046e-05 5.5999999999996794e-05 0.0040000000000000001 0.001 -0.002 0 0 0 0 0 0 0 1 0 0
821 1 1.8738318739816301e-06 9.3691593699081507e-07 3.445010012414487e-15 2.8000000000001697e-05 3.0000000000001597e-05 6.3999999999997463e-05 0.00010800000000000169 3.0000000000001597e-05 -1.600000000000253e-05 0.0040000000000000001 0.001 -0.002 0 0 0 0 0 0 0 1 0 -1
822 1 1.446061487726232e-06 7.2303074386311602e-07 1.5832842881851695e-15 2.8000000000001697e-05 3.0000000000001597e-05 7.1999999999998809e-05 0.00010800000000000169 3.0000000000001597e-05 -8.0000000000011838e-06 0.0040000000000000001 0.001 -0.002 0 0 0 0 0 0 0 1 0 -1
823 1 1.1751385969937141e-06 5.8756929849685704e-07 8.4970054056126673e-16 2.8000000000001697e-05 3.0000000000001597e-05 1.6970437447137916e-19 0.00010800000000000169 3.0000000000001597e-05 1.6970437447137916e-19 0.0040000000000000001 0.001 -0.002 0 0 0 0 0 0 0 1 0 0
824 1 1.6816421811939504e-06 8.4082109059697518e-07 2.4900003000817273e-15 2.8000000000001697e-05 3.0000000000001597e-05 8.0000000000001911e-06 0.00010800000000000169 3.0000000000001597e-05 8.0000000000001911e-06 0.0040000000000000001 0.001 -0.002 0 0 0 0 0 0 0 1 0 0
825 1 1.4056894061646186e-06 7.0284470308230929e-07 1.4543426412487923e-15 2.8000000000001697e-05 3.0000000000001597e-05 1.5999999999999264e-05 0.00010800000000000169 3.0000000000001597e-05 1.5999999999999264e-05 0.0040000000000000001 0.001 -0.002 0 0 0 0 0 0 0 1 0 0
826 1 1.8462184027443684e-06 9.2310920137218418e-07 3.2949425684909917e-15 2.8000000000001697e-05 3.0000000000001597e-05 2.3999999999997907e-05 0.00010800000000000169 3.0000000000001597e-05 2.3999999999997907e-05 0.0040000000000000001 0.001 -0.002 0 0 0 0 0 0 0 1 0 0
827 1 3.0187984942169993e-06 1.5093992471084997e-06 1.4404593150416823e-14 2.8000000000001697e-05 3.0000000000001597e-05 3.19999999999968e-05 0.00010800000000000169 3.0000000000001597e-05 3.19999999999968e-05 0.0040000000000000001 0.001 -0.002 0 0 0 0 0 0 0 1 0 0
828 1 1.3953424877229192e-06 6.9767124386145959e-07 1.4224633252389799e-15 2.8000000000001697e-05 3.0000000000001597e-05 3.9999999999996798e-05 0.00010800000000000169 3.0000000000001597e-05 3.9999999999996798e-05 0.0040000000000000001 0.001 -0.002 0 0 0 0 0 0 0 1 0 0
829 1 1.9158193707244636e-06 9.5790968536223179e-07 3.6818178805147269e-15 2.8000000000001697e-05 3.0000000000001597e-05 4.7999999999996803e-05 0.00010800000000000169 3.0000000000001597e-05 4.7999999999996803e-05 0.0040000000000000001 0.001 -0.002 0 0 0 0 0 0 0 1 0 0
830 1 1.7040042123846692e-06 8.5200210619233458e-07 2.5906611619116991e-15 2.8000000000001697e-05 3.0000000000001597e-05 5.5999999999996794e-05 0.00010800000000000169 3.0000000000001597e-05 5.5999999999996794e-05 0.0040000000000000001 0.001 -0.002 0 0 0 0 0 0 0 1 0 0
831 1 1.7510402327308891e-06 8.7552011636544457e-07 2.8111692689632482e-15 2.8000000000001697e-05 3.8000000000001595e-05 6.3999999999997463e-05 0.00010800000000000169 3.8000000000001595e-05 -1.600000000000253e-05 0.0040000000000000001 0.001 -0.002 0 0 0 0 0 0 0 1 0 -1
832 1 2.1927536440566711e-06 1.0963768220283356e-06 5.5203694851432393e-15 2.8000000000001697e-05 3.8000000000001595e-05 7.1999999999998809e-05 0.00010800000000000169 3.8000000000001595e-05 -8.0000000000011838e-06 0.0040000000000000001 0.001 -0.002 0 0 0 0 0 0 0 1 0 -1
833 1 2.2693356154303844e-06 1.1346678077151922e-06 6.1192022780348064e-15 2.8000000000001697e-05 3.8000000000001595e-05 1.6970437447137916e-19 0.00010800000000000169 3.8000000000001595e-05 1.6970437447137916e-19 0.0040000000000000001 0.001 -0.002 0 0 0 0 0 0 0 1 0 0
834 1 2.2297638036024267e-06 1.1148819018012133e-06 5.8046388709062259e-15 2.8000000000001697e-05 3.8000000000001595e-05 8.0000000000001911e-06 0.00010800000000000169 3.8000000000001595e-05 8.0000000000001911e-06 0.0040000000000000001 0.001 -0.002 0 0 0 0 0 0 0 1 0 0
835 1 1.8242322351853435e-06 9.1211611759267175e-07 3.1786228375230058e-15 2.8000000000001697e-05 3.8000000000001595e-05 1.5999999999999264e-05 0.00010800000000000169 3.8000000000001595e-05 1.5999999999999264e-05 0.0040000000000000001 0.001 -0.002 0 0 0 0 0 0 0 1 0 0
836 1 1.3194288024099674e-06 6.5971440120498372e-07 1.2026977627187864e-15 2.8000000000001697e-05 3.8000000000001595e-05 2.3999999999997907e-05 0.00010800000000000169 3.8000000000001595e-05 2.3999999999997907e-05 0.0040000000000000001 0.001 -0.002 0 0 0 0 0 0 0 1 0 0
837 1 1.7069060194546848e-06 8.5345300972734239e-07 2.6039188899106238e-15 2.8000000000001697e-05 3.8000000000001595e-05 3.19999999999968e-05 0.00010800000000000169 3.8000000000001595e-05 3.19999999999968e-05 0.0040000000000000001 0.001 -0.002 0 0 0 0 0 0 0 1 0 0
838 1 1.5692083174492078e-06 7.8460415872460388e-07 2.0232075011958217e-15 2.8000000000001697e-05 3.8000000000001595e-05 3.9999999999996798e-05 0.00010800000000000169 3.8000000000001595e-05 3.9999999999996798e-05 0.0040000000000000001 0.001 -0.002 0 0 0 0 0 0 0 1 0 0
839 1 2.0396249212215368e-06 1.0198124606107684e-06 4.4427262267004159e-15 2.8000000000001697e-05 3.8000000000001595e-05 4.7999999999996803e-05 0.00010800000000000169 3.8000000000001595e-05 4.7999999999996803e-05 0.0040000000000000001 0.001 -0.002 0 0 0 0 0 0 0 1 0 0
840 1 1.9479954672686437e-06 9.7399773363432185e-07 3.8704587949505901e-15 2.8000000000001697e-05 3.8000000000001595e-05 5.5999999999996794e-05 0.00010800000000000169 3.8000000000001595e-05 5.5999999999996794e-05 0.0040000000000000001 0.001 -0.002 0 0 0 0 0 0 0 1 0 0
841 1 1.1511950987144313e-06 5.7559754935721565e-07 7.9881354071200378e-16 2.8000000000001697e-05 4.6000000000001599e-05 6.3999999999997463e-05 0.00010800000000000169 4.6000000000001599e-05 -1.600000000000253e-05 0.0040000000000000001 0.001 -0.002 0 0 0 0 0 0 0 1 0 -1
842 1 2.100372558777655e-06 1.0501862793888275e-06 4.8516295122599772e-15 2.8000000000001697e-05 4.6000000000001599e-05 7.1999999999998809e-05 0.00010800000000000169 4.6000000000001599e-05 -8.0000000000011838e-06 0.0040000000000000001 0.001 -0.002 0 0 0 0 0 0 0 1 0 -1
843 1 1.6484920036379819e-06 8.2424600181899095e-07 2.3456281060755442e-15 2.8000000000001697e-05 4.6000000000001599e-05 1.6970437447137916e-19 0.00010800000000000169 4.6000000000001599e-05 1.6970437447137916e-19 0.0040000000000000001 0.001 -0.002 0 0 0 0 0 0 0 1 0 0
844 1 2.7156849814774468e-06 1.3578424907387234e-06 1.0486650495863815e-14 2.8000000000001697e-05 4.6000000000001599e-05 8.0000000000001911e-06 0.00010800000000000169 4.6000000000001599e-05 8.0000000000001911e-06 0.0040000000000000001 0.001 -0.002 0 0 0 0 0 0 0 1 0 0
845 1 2.5787202205898924e-06 1.2893601102949462e-06 8.9786553125633348e-15 2.8000000000001697e-05 4.6000000000001599e-05 1.5999999999999264e-05 0.00010800000000000169 4.6000000000001599e-05 1.5999999999999264e-05 0.0040000000000000001 0.001 -0.002 0 0 0 0 0 0 0 1 0 0
846 1 1.8178327941225885e-06 9.0891639706129424e-07 3.1452880441030496e-15 2.8000000000001697e-05 4.6000000000001599e-05 2.3999999999997907e-05 0.00010800000000000169 4.6000000000001599e-05 2.3999999999997907e-05 0.0040000000000000001 0.001 -0.002 0 0 0 0 0 0 0 1 0 0
847 1 1.5630239889006062e-06 7.8151199445030309e-07 1.9993809637835911e-15 2.8000000000001697e-05 4.6000000000001599e-05 3.19999999999968e-05 0.00010800000000000169 4.6000000000001599e-05 3.19999999999968e-05 0.0040000000000000001 0.001 -0.002 0 0 0 0 0 0 0 1 0 0
848 1 1.3036421856136829e-06 6.5182109280684146e-07 1.1600423366525015e-15 2.8000000000001697e-05 4.6000000000001599e-05 3.9999999999996798e-05 0.00010800000000000169 4.6000000000001599e-05 3.9999999999996798e-05 0.0040000000000000001 0.001 -0.002 0 0 0 0 0 0 0 1 0 0
849 1 1.7603835632217756e-06 8.8019178161088778e-07 2.8564099482662587e-15 2.8000000000001697e-05 4.6000000000001599e-05 4.7999999999996803e-05 0.00010800000000000169 4.6000000000001599e-05 4.7999999999996803e-05 0.0040000000000000001 0.001 -0.002 0 0 0 0 0 0 0 1 0 0
850 1 3.8681099127710759e-06 1.934054956385538e-06 3.0303656928353152e-14 2.8000000000001697e-05 4.6000000000001599e-05 5.5999999999996794e-05 0.00010800000000000169 4.6000000000001599e-05 5.5999999999996794e-05 0.0040000000000000001 0.001 -0.002 0 0 0 0 0 0 0 1 0 0
851 1 3.1564905619319435e-06 1.5782452809659717e-06 1.6466909838848007e-14 2.8000000000001697e-05 5.4000000000001597e-05 6.3999999999997463e-05 0.00010800000000000169 5.4000000000001597e-05 -1.600000000000253e-05 0.0040000000000000001 0.001 -0.002 0 0 0 0 0 0 0 1 0 -1
852 1 1.1340008677753489e-06 5.6700043388767445e-07 7.6355228822692461e-16 2.8000000000001697e-05 5.4000000000001597e-05 7.1999999999998809e-05 0.00010800000000000169 5.4000000000001597e-05 -8.0000000000011838e-06 0.0040000000000000001 0.001 -0.002 0 0 0 0 0 0 0 1 0 -1
853 1 1.9352061128670139e-06 9.6760305643350694e-07 3.7947249598795182e-15 2.8000000000001697e-05 5.4000000000001597e-05 1.6970437447137916e-19 0.00010800000000000169 5.4000000000001597e-05 1.6970437447137916e-19 0.0040000000000000001 0.001 -0.002 0 0 0 0 0 0 0 1 0 0
854 1 2.2288766536717474e-06 1.1144383268358737e-06 5.7977132005043443e-15 2.8000000000001697e-05 5.4000000000001597e-05 8.0000000000001911e-06 0.00010800000000000169 5.4000000000001597e-05 8.0000000000001911e-06 0.0040000000000000001 0.001 -0.002 0 0 0 0 0 0 0 1 0 0
855 1 2.4221010108914138e-06 1.2110505054457069e-06 7.4400417926148796e-15 2.8000000000001697e-05 5.4000000000001597e-05 1.5999999999999264e-05 0.00010800000000000169 5.4000000000001597e-05 1.5999999999999264e-05 0.0040000000000000001 0.001 -0.002 0 0 0 0 0 0 0 1 0 0
856 1 1.2740802913232146e-06 6.3704014566160731e-07 1.0829016498117721e-15 2.8000000000001697e-05 5.4000000000001597e-05 2.3999999999997907e-05 0.00010800000000000169 5.4000000000001597e-05 2.3999999999997907e-05 0.0040000000000000001 0.001 -0.002 0 0 0 0 0 0 0 1 0 0
857 1 2.5026960658489098e-06 1.2513480329244549e-06 8.2077279879582948e-15 2.8000000000001697e-05 5.4000000000001597e-05 3.19999999999968e-05 0.00010800000000000169 5.4000000000001597e-05 3.19999999999968e-05 0.0040000000000000001 0.001 -0.002 0 0 0 0 0 0 0 1 0 0
858 1 2.4126957410990286e-06 1.2063478705495143e-06 7.3537065458216625e-15 2.8000000000001697e-05 5.4000000000001597e-05 3.9999999999996798e-05 0.00010800000000000169 5.4000000000001597e-05 3.9999999999996798e-05 0.0040000000000000001 0.001 -0.002 0 0 0 0 0 0 0 1 0 0
859 1 3.4248957505010264e-06 1.7124478752505132e-06 2.1034911651123061e-14 2.8000000000001697e-05 5.4000000000001597e-05 4.7999999999996803e-05 0.00010800000000000169 5.4000000000001597e-05 4.7999999999996803e-05 0.0040000000000000001 0.001 -0.002 0 0 0 0 0 0 0 1 0 0
860 1 1.1164870187172814e-06 5.5824350935864071e-07 7.2871826678851871e-16 2.8000000000001697e-05 5.4000000000001597e-05 5.5999999999996794e-05 0.00010800000000000169 5.4000000000001597e-05 5.5999999999996794e-05 0.0040000000000000001 0.001 -0.002 0 0 0 0 0 0 0 1 0 0
861 1 2.4634384719816399e-06 1.23171923599082e-06 7.8275127033256888e-15 2.8000000000001697e-05 6.2000000000000938e-05 6.3999999999997463e-05 0.00010800000000000169 6.2000000000000938e-05 -1.600000000000253e-05 0.0040000000000000001 0.001 -0.002 0 0 0 0 0 0 0 1 0 -1
862 1 1.8311866247385724e-06 9.155933123692862e-07 3.2151145059713559e-15 2.8000000000001697e-05 6.2000000000000938e-05 7.1999999999998809e-05 0.00010800000000000169 6.2000000000000938e-05 -8.0000000000011838e-06 0.0040000000000000001 0.001 -0.002 0 0 0 0 0 0 0 1 0 -1
863 1 3.3485602018977659e-06 1.674280100948883e-06 1.9659522087314608e-14 2.8000000000001697e-05 6.2000000000000938e-05 1.6970437447137916e-19 0.00010800000000000169 6.2000000000000938e-05 1.6970437447137916e-19 0.0040000000000000001 0.001 -0.002 0 0 0 0 0 0 0 1 0 0
864 1 2.1399573068937534e-06 1.0699786534468767e-06 5.131141007034902e-15 2.8000000000001697e-05 6.2000000000000938e-05 8.0000000000001911e-06 0.00010800000000000169 6.2000000000000938e-05 8.0000000000001911e-06 0.0040000000000000001 0.001 -0.002 0 0 0 0 0 0 0 1 0 0
865 1 2.6123376371639979e-06 1.3061688185819989e-06 9.3344029557108456e-15 2.8000000000001697e-05 6.2000000000000938e-05 1.5999999999999264e-05 0.00010800000000000169 6.2000000000000938e-05 1.5999999999999264e-05 0.0040000000000000001 0.001 -0.002 0 0 0 0 0 0 0 1 0 0
866 1 1.6016692102892253e-06 8.0083460514461265e-07 2.1513798827693545e-15 2.8000000000001697e-05 6.2000000000000938e-05 2.3999999999997907e-05 0.00010800000000000169 6.2000000000000938e-05 2.3999999999997907e-05 0.0040000000000000001 0.001 -0.002 0 0 0 0 0 0 0 1 0 0
867 1 1.7705460335870642e-06 8.8527301679353209e-07 2.9061651502416251e-15 2.8000000000001697e-05 6.2000000000000938e-05 3.19999999999968e-05 0.00010800000000000169 6.2000000000000938e-05 3.19999999999968e-05 0.0040000000000000001 0.001 -0.002 0 0 0 0 0 0 0 1 0 0
868 1 1.9307198149797076e-06 9.6535990748985381e-07 3.7683946939810603e-15 2.8000000000001697e-05 6.2000000000000938e-05 3.9999999999996798e-05 0.00010800000000000169 6.2000000000000938e-05 3.9999999999996798e-05 0.0040000000000000001 0.001 -0.002 0 0 0 0 0 0 0 1 0 0
869 1 1.2738169591758946e-06 6.3690847958794732e-07 1.0822303328998915e-15 2.8000000000001697e-05 6.2000000000000938e-05 4.7999999999996803e-05 0.00010800000000000169 6.2000000000000938e-05 4.7999999999996803e-05 0.0040000000000000001 0.001 -0.002 0 0 0 0 0 0 0 1 0 0
870 1 1.8498057772847553e-06 9.2490288864237764e-07 3.314187056052703e-15 2.8000000000001697e-05 6.2000000000000938e-05 5.5999999999996794e-05 0.00010800000000000169 6.2000000000000938e-05 5.5999999999996794e-05 0.0040000000000000001 0.001 -0.002 0 0 0 0 0 0 0 1 0 0
871 1 1.3949147491270998e-06 6.9745737456354992e-07 1.4211555689569833e-15 2.8000000000001697e-05 6.9999999999995522e-05 6.3999999999997463e-05 0.00010800000000000169 6.9999999999995522e-05 -1.600000000000253e-05 0.0040000000000000001 0.001 -0.002 0 0 0 0 0 0 0 1 0 -1
872 1 2.7663295070101433e-06 1.3831647535050717e-06 1.1084353041410894e-14 2.8000000000001697e-05 6.9999999999995522e-05 7.1999999999998809e-05 0.00010800000000000169 6.9999999999995522e-05 -8.0000000000011838e-06 0.0040000000000000001 0.001 -0.002 0 0 0 0 0 0 0 1 0 -1
873 1 2.6588557396367694e-06 1.3294278698183847e-06 9.8419906077720567e-15 2.8000000000001697e-05 6.9999999999995522e-05 1.6970437447137916e-19 0.00010800000000000169 6.9999999999995522e-05 1.6970437447137916e-19 0.0040000000000000001 0.001 -0.002 0 0 0 0 0 0 0 1 0 0
874 1 2.0759689620185737e-06 1.0379844810092869e-06 4.6844778574212298e-15 2.8000000000001697e-05 6.9999999999995522e-05 8.0000000000001911e-06 0.00010800000000000169 6.9999999999995522e-05 8.0000000000001911e-06 0.0040000000000000001 0.001 -0.002 0 0 0 0 0 0 0 1 0 0
875 1 2.8887618389772448e-06 1.4443809194886224e-06 1.2622164543573503e-14 2.8000000000001697e-05 6.9999999999995522e-05 1.5999999999999264e-05 0.00010800000000000169 6.9999999999995522e-05 1.5999999999999264e-05 0.0040000000000000001 0.001 -0.002 0 0 0 0 0 0 0 1 0 0
876 1 1.8786466620695674e-06 9.3932333103478371e-07 3.47163403879843e-15 2.8000000000001697e-05 6.9999999999995522e-05 2.3999999999997907e-05 0.00010800000000000169 6.9999999999995522e-05 2.3999999999997907e-05 0.0040000000000000001 0.001 -0.002 0 0 0 0 0 0 0 1 0 0
877 1 2.4261447977099277e-06 1.2130723988549638e-06 7.4773683124472648e-15 2.8000000000001697e-05 6.9999999999995522e-05 3.19999999999968e-05 0.00010800000000000169 6.9999999999995522e-05 3.19999999999968e-05 0.0040000000000000001 0.001 -0.002 0 0 0 0 0 0 0 1 0 0
878 1 3.7989127992062005e-06 1.8994563996031003e-06 2.8706258855945671e-14 2.8000000000001697e-05 6.9999999999995522e-05 3.9999999999996798e-05 0.00010800000000000169 6.9999999999995522e-05 3.9999999999996798e-05 0.0040000000000000001 0.001 -0.002 0 0 0 0 0 0 0 1 0 0
879 1 1.711023891322271e-06 8.555119456611355e-07 2.622810076174541e-15 2.8000000000001697e-05 6.9999999999995522e-05 4.7999999999996803e-05 0.00010800000000000169 6.9999999999995522e-05 4.7999999999996803e-05 0.0040000000000000001 0.001 -0.002 0 0 0 0 0 0 0 1 0 0
880 1 1.4782841691676e-06 7.3914208458380002e-07 1.6915015520505921e-15 2.8000000000001697e-05 6.9999999999995522e-05 5.5999999999996794e-05 0.00010800000000000169 6.9999999999995522e-05 5.5999999999996794e-05 0.0040000000000000001 0.001 -0.002 0 0 0 0 0 0 0 1 0 0
881 1 1.1898241127081365e-06 5.9491205635406826e-07 8.8195600239839626e-16 2.8000000000001697e-05 7.7999999999994822e-05 6.3999999999997463e-05 0.00010800000000000169 7.7999999999994822e-05 -1.600000000000253e-05 0.0040000000000000001 0.001 -0.002 0 0 0 0 0 0 0 1 0 -1
882 1 2.1171014981310019e-06 1.0585507490655009e-06 4.9684813130607357e-15 2.8000000000001697e-05 7.7999999999994822e-05 7.1999999999998809e-05 0.00010800000000000169 7.7999999999994822e-05 -8.0000000000011838e-06 0.0040000000000000001 0.001 -0.002 0 0 0 0 0 0 0 1 0 -1
883 1 2.4151152505242016e-06 1.2075576252621008e-06 7.3758521614931509e-15 2.8000000000001697e-05 7.7999999999994822e-05 1.6970437447137916e-19 0.00010800000000000169 7.7999999999994822e-05 1.6970437447137916e-19 0.0040000000000000001 0.001 -0.002 0 0 0 0 0 0 0 1 0 0
884 1 2.468755120230959e-06 1.2343775601154795e-06 7.8783027031616138e-15 2.8000000000001697e-05 7.7999999999994822e-05 8.0000000000001911e-06 0.00010800000000000169 7.7999999999994822e-05 8.0000000000001911e-06 0.0040000000000000001 0.001 -0.002 0 0 0 0 0 0 0 1 0 0
885 1 2.7457191109453615e-06 1.3728595554726808e-06 1.0838444096560251e-14 2.8000000000001697e-05 7.7999999999994822e-05 1.5999999999999264e-05 0.00010800000000000169 7.7999999999994822e-05 1.5999999999999264e-05 0.0040000000000000001 0.001 -0.002 0 0 0 0 0 0 0 1 0 0
886 1 1.6485982054947485e-06 8.2429910274737424e-07 2.3460814769900304e-15 2.8000000000001697e-05 7.7999999999994822e-05 2.3999999999997907e-05 0.00010800000000000169 7.7999999999994822e-05 2.3999999999997907e-05 0.0040000000000000001 0.001 -0.002 0 0 0 0 0 0 0 1 0 0
887 1 2.6142593717112949e-06 1.3071296858556474e-06 9.3550183352137898e-15 2.8000000000001697e-05 7.7999999999994822e-05 3.19999999999968e-05 0.00010800000000000169 7.7999999999994822e-05 3.19999999999968e-05 0.0040000000000000001 0.001 -0.002 0 0 0 0 0 0 0 1 0 0
888 1 1.7891415647650892e-06 8.9457078238254462e-07 2.9986980550270192e-15 2.8000000000001697e-05 7.7999999999994822e-05 3.9999999999996798e-05 0.00010800000000000169 7.7999999999994822e-05 3.9999999999996798e-05 0.0040000000000000001 0.001 -0.002 0 0 0 0 0 0 0 1 0 0
889 1 3.052636277267676e-06 1.526318138633838e-06 1.4894427177723655e-14 2.8000000000001697e-05 7.7999999999994822e-05 4.7999999999996803e-05 0.00010800000000000169 7.7999999999994822e-05 4.7999999999996803e-05 0.0040000000000000001 0.001 -0.002 0 0 0 0 0 0 0 1 0 0
890 1 1.397271414314458e-06 6.9863570715722901e-07 1.4283707397610312e-15 2.8000000000001697e-05 7.7999999999994822e-05 5.5999999999996794e-05 0.00010800000000000169 7.7999999999994822e-05 5.5999999999996794e-05 0.0040000000000000001 0.001 -0.002 0 0 0 0 0 0 0 1 0 0
891 1 1.5831271594174493e-06 7.9156357970872463e-07 2.0775238628395474e-15 2.8000000000001697e-05 5.9999999999978741e-06 6.3999999999997463e-05 0.00010800000000000169 8.5999999999997862e-05 -1.600000000000253e-05 0.0040000000000000001 0.001 -0.002 0 0 0 0 0 0 0 1 1 -1
892 1 3.6160739437769334e-06 1.8080369718884667e-06 2.4757713344482647e-14 2.8000000000001697e-05 5.9999999999978741e-06 7.1999999999998809e-05 0.00010800000000000169 8.5999999999997862e-05 -8.0000000000011838e-06 0.0040000000000000001 0.001 -0.002 0 0 0 0 0 0 0 1 1 -1
893 1 3.0417047341529141e-06 1.520852367076457e-06 1.4734987896851437e-14 2.8000000000001697e-05 5.9999999999978741e-06 1.6970437447137916e-19 0.00010800000000000169 8.5999999999997862e-05 1.6970437447137916e-19 0.0040000000000000001 0.001 -0.002 0 0 0 0 0 0 0 1 1 0
894 1 3.6900455400641181e-06 1.8450227700320591e-06 2.630836146265544e-14 2.8000000000001697e-05 5.9999999999978741e-06 8.0000000000001911e-06 0.00010800000000000169 8.5999999999997862e-05 8.0000000000001911e-06 0.0040000000000000001 0.001 -0.002 0 0 0 0 0 0 0 1 1 0
895 1 2.0009559044426316e-06 1.0004779522213158e-06 4.1947992006334107e-15 2.8000000000001697e-05 5.9999999999978741e-06 1.5999999999999264e-05 0.00010800000000000169 8.5999999999997862e-05 1.5999999999999264e-05 0.0040000000000000001 0.001 -0.002 0 0 0 0 0 0 0 1 1 0
896 1 2.9311011650229949e-06 1.4655505825114975e-06 1.3185331301153318e-14 2.8000000000001697e-05 5.9999999999978741e-06 2.3999999999997907e-05 0.00010800000000000169 8.5999999999997862e-05 2.3999999999997907e-05 0.0040000000000000001 0.001 -0.002 0 0 0 0 0 0 0 1 1 0
897 1 2.0606917168566951e-06 1.0303458584283475e-06 4.5818165704074662e-15 2.8000000000001697e-05 5.9999999999978741e-06 3.19999999999968e-05 0.00010800000000000169 8.5999999999997862e-05 3.19999999999968e-05 0.0040000000000000001 0.001 -0.002 0 0 0 0 0 0 0 1 1 0
898 1 2.135940435231104e-06 1.067970217615552e-06 5.1023005199452665e-15 2.8000000000001697e-05 5.9999999999978741e-06 3.9999999999996798e-05 0.00010800000000000169 8.5999999999997862e-05 3.9999999999996798e-05 0.0040000000000000001 0.001 -0.002 0 0 0 0 0 0 0 1 1 0
899 1 1.5448251559044327e-06 7.7241257795221633e-07 1.9303524935018709e-15 2.8000000000001697e-05 5.9999999999978741e-06 4.7999999999996803e-05 0.00010800000000000169 8.5999999999997862e-05 4.7999999999996803e-05 0.0040000000000000001 0.001 -0.002 0 0 0 0 0 0 0 1 1 0
900 1 3.2386563067021739e-06 1.619328153351087e-06 1.7786611075830473e-14 2.8000000000001697e-05 5.9999999999978741e-06 5.5999999999996794e-05 0.00010800000000000169 8.5999999999997862e-05 5.5999999999996794e-05 0.0040000000000000001 0.001 -0.002 0 0 0 0 0 0 0 1 1 0
901 1 8.0362510750589407e-07 4.0181255375294703e-07 2.7174346758077509e-16 3.6000000000000333e-05 1.3999999999999905e-05 6.3999999999997463e-05 0.00011600000000000033 1.3999999999999905e-05 -1.600000000000253e-05 0.0040000000000000001 0.001 -0.002 0 0 0 0 0 0 0 1 0 -1
902 1 2.0612543095209268e-06 1.0306271547604634e-06 4.5855702617168966e-15 3.6000000000000333e-05 1.3999999999999905e-05 7.1999999999998809e-05 0.00011600000000000033 1.3999999999999905e-05 -8.0000000000011838e-06 0.0040000000000000001 0.001 -0.002 0 0 0 0 0 0 0 1 0 -1
903 1 3.0064287748826593e-06 1.5032143874413296e-06 1.4228246503029803e-14 3.6000000000000333e-05 1.3999999999999905e-05 1.6970437447137916e-19 0.00011600000000000033 1.3999999999999905e-05 1.6970437447137916e-19 0.0040000000000000001 0.001 -0.002 0 0 0 0 0 0 0 1 0 0
904 1 2.5015598525639642e-06 1.2507799262819821e-06 8.1965542423655298e-15 3.6000000000000333e-05 1.3999999999999905e-05 8.0000000000001911e-06 0.00011600000000000033 1.3999999999999905e-05 8.0000000000001911e-06 0.0040000000000000001 0.001 -0.002 0 0 0 0 0 0 0 1 0 0
905 1 1.0883739698222735e-06 5.4418698491113674e-07 6.750455232951721e-16 3.6000000000000333e-05 1.3999999999999905e-05 1.5999999999999264e-05 0.00011600000000000033 1.3999999999999905e-05 1.5999999999999264e-05 0.0040000000000000001 0.001 -0.002 0 0 0 0 0 0 0 1 0 0
906 1 2.0868591925640478e-06 1.0434295962820239e-06 4.7585875337719782e-15 3.6000000000000333e-05 1.3999999999999905e-05 2.3999999999997907e-05 0.00011600000000000033 1.3999999999999905e-05 2.3999999999997907e-05 0.0040000000000000001 0.001 -0.002 0 0 0 0 0 0 0 1 0 0
907 1 1.8254608467391178e-06 9.1273042336955888e-07 3.1850495250698111e-15 3.6000000000000333e-05 1.3999999999999905e-05 3.19999999999968e-05 0.00011600000000000033 1.3999999999999905e-05 3.19999999999968e-05 0.0040000000000000001 0.001 -0.002 0 0 0 0 0 0 0 1 0 0
908 1 2.8320322431767604e-06 1.4160161215883802e-06 1.1893048857541061e-14 3.6000000000000333e-05 1.3999999999999905e-05 3.9999999999996798e-05 0.00011600000000000033 1.3999999999999905e-05 3.9999999999996798e-05 0.0040000000000000001 0.001 -0.002 0 0 0 0 0 0 0 1 0 0
909 1 1.1071166987245983e-06 5.5355834936229916e-07 7.1052412137538254e-16 3.6000000000000333e-05 1.3999999999999905e-05 4.7999999999996803e-05 0.00011600000000000033 1.3999999999999905e-05 4.7999999999996803e-05 0.0040000000000000001 0.001 -0.002 0 0 0 0 0 0 0 1 0 0
910 1 1.2394236529003426e-06 6.1971182645017132e-07 9.9691461279473305e-16 3.6000000000000333e-05 1.3999999999999905e-05 5.5999999999996794e-05 0.00011600000000000033 1.3999999999999905e-05 5.5999999999996794e-05 0.0040000000000000001 0.001 -0.002 0 0 0 0 0 0 0 1 0 0
911 1 2.5990699905485441e-06 1.299534995274272e-06 9.1929002291704937e-15 3.6000000000000333e-05 2.2000000000001046e-05 6.3999999999997463e-05 0.00011600000000000033 2.2000000000001046e-05 -1.600000000000253e-05 0.0040000000000000001 0.001 -0.002 0 0 0 0 0 0 0 1 0 -1
912 1 2.0725502175641095e-06 1.0362751087820548e-06 4.6613724927278603e-15 3.6000000000000333e-05 2.2000000000001046e-05 7.1999999999998809e-05 0.00011600000000000033 2.2000000000001046e-05 -8.0000000000011838e-06 0.0040000000000000001 0.001 -0.002 0 0 0 0 0 0 0 1 0 -1
913 1 3.2899229341311347e-06 1.6449614670655673e-06 1.8644717039485347e-14 3.6000000000000333e-05 2.2000000000001046e-05 1.6970437447137916e-19 0.00011600000000000033 2.2000000000001046e-05 1.6970437447137916e-19 0.0040000000000000001 0.001 -0.002 0 0 0 0 0 0 0 1 0 0
914 1 2.9437280844447326e-06 1.4718640422223663e-06 1.3356470092469419e-14 3.6000000000000333e-05 2.2000000000001046e-05 8.0000000000001911e-06 0.00011600000000000033 2.2000000000001046e-05 8.0000000000001911e-06 0.0040000000000000001 0.001 -0.002 0 0 0 0 0 0 0 1 0 0
915 1 2.69516062044296e-06 1.34758031022148e-06 1.0250677722255214e-14 3.6000000000000333e-05 2.2000000000001046e-05 1.5999999999999264e-05 0.00011600000000000033 2.2000000000001046e-05 1.5999999999999264e-05 0.0040000000000000001 0.001 -0.002 0 0 0 0 0 0 0 1 0 0
916 1 3.9817142825486608e-06 1.9908571412743304e-06 3.3052849124773164e-14 3.6000000000000333e-05 2.2000000000001046e-05 2.3999999999997907e-05 0.00011600000000000033 2.2000000000001046e-05 2.3999999999997907e-05 0.0040000000000000001 0.001 -0.002 0 0 0 0 0 0 0 1 0 0
917 1 1.2548304224500827e-06 6.2741521122504134e-07 1.0345553721827078e-15 3.6000000000000333e-05 2.2000000000001046e-05 3.19999999999968e-05 0.00011600000000000033 2.2000000000001046e-05 3.19999999999968e-05 0.0040000000000000001 0.001 -0.002 0 0 0 0 0 0 0 1 0 0
918 1 1.5791570143666033e-06 7.8957850718330163e-07 2.0619330672641978e-15 3.6000000000000333e-05 2.2000000000001046e-05 3.9999999999996798e-05 0.00011600000000000033 2.2000000000001046e-05 3.9999999999996798e-05 0.0040000000000000001 0.001 -0.002 0 0 0 0 0 0 0 1 0 0
919 1 2.1924543330673573e-06 1.0962271665336787e-06 5.5181092015130827e-15 3.6000000000000333e-05 2.2000000000001046e-05 4.7999999999996803e-05 0.00011600000000000033 2.2000000000001046e-05 4.7999999999996803e-05 0.0040000000000000001 0.001 -0.002 0 0 0 0 0 0 0 1 0 0
920 1 2.4098846862421508e-06 1.2049423431210754e-06 7.3280328604820867e-15 3.6000000000000333e-05 2.2000000000001046e-05 5.5999999999996794e-05 0.00011600000000000033 2.2000000000001046e-05 5.5999999999996794e-05 0.0040000000000000001 0.001 -0.002 0 0 0 0 0 0 0 1 0 0
921 1 2.7805357945184404e-06 1.3902678972592202e-06 1.1256000222071938e-14 3.6000000000000333e-05 3.0000000000001597e-05 6.3999999999997463e-05 0.00011600000000000033 3.0000000000001597e-05 -1.600000000000253e-05 0.0040000000000000001 0.001 -0.002 0 0 0 0 0 0 0 1 0 -1
922 1 3.5624340153364299e-06 1.7812170076682149e-06 2.3672226583802737e-14 3.6000000000000333e-05 3.0000000000001597e-05 7.1999999999998809e-05 0.00011600000000000033 3.0000000000001597e-05 -8.0000000000011838e-06 0.0040000000000000001 0.001 -0.002 0 0 0 0 0 0 0 1 0 -1
923 1 2.1373037351398675e-06 1.0686518675699338e-06 5.112076644445687e-15 3.6000000000000333e-05 3.0000000000001597e-05 1.6970437447137916e-19 0.00011600000000000033 3.0000000000001597e-05 1.6970437447137916e-19 0.0040000000000000001 0.001 -0.002 0 0 0 0 0 0 0 1 0 0
924 1 3.2375352120523256e-06 1.6187676060261628e-06 1.7768146406392016e-14 3.6000000000000333e-05 3.0000000000001597e-05 8.0000000000001911e-06 0.00011600000000000033 3.0000000000001597e-05 8.0000000000001911e-06 0.0040000000000000001 0.001 -0.002 0 0 0 0 0 0 0 1 0 0
925 1 1.8849654217358823e-06 9.4248271086794115e-07 3.5067821376832526e-15 3.6000000000000333e-05 3.0000000000001597e-05 1.5999999999999264e-05 0.00011600000000000033 3.0000000000001597e-05 1.5999999999999264e-05 0.0040000000000000001 0.001 -0.002 0 0 0 0 0 0 0 1 0 0
926 1 1.5722238031846451e-06 7.8611190159232257e-07 2.0348936835139899e-15 3.6000000000000333e-05 3.0000000000001597e-05 2.3999999999997907e-05 0.00011600000000000033 3.0000000000001597e-05 2.3999999999997907e-05 0.0040000000000000001 0.001 -0.002 0 0 0 0 0 0 0 1 0 0
927 1 1.4802545354136123e-06 7.4012726770680615e-07 1.6982742455118131e-15 3.6000000000000333e-05 3.0000000000001597e-05 3.19999999999968e-05 0.00011600000000000033 3.0000000000001597e-05 3.19999999999968e-05 0.0040000000000000001 0.001 -0.002 0 0 0 0 0 0 0 1 0 0
928 1 1.5473037282595165e-06 7.7365186412975823e-07 1.93965878722241e-15 3.6000000000000333e-05 3.0000000000001597e-05 3.9999999999996798e-05 0.00011600000000000033 3.0000000000001597e-05 3.9999999999996798e-05 0.0040000000000000001 0.001 -0.002 0 0 0 0 0 0 0 1 0 0
929 1 1.8829716390736825e-06 9.4148581953684125e-07 3.4956662277083975e-15 3.6000000000000333e-05 3.0000000000001597e-05 4.7999999999996803e-05 0.00011600000000000033 3.0000000000001597e-05 4.7999999999996803e-05 0.0040000000000000001 0.001 -0.002 0 0 0 0 0 0 0 1 0 0
930 1 1.1504413342537302e-06 5.7522066712686512e-07 7.9724545786147038e-16 3.6000000000000333e-05 3.0000000000001597e-05 5.5999999999996794e-05 0.00011600000000000033 3.0000000000001597e-05 5.5999999999996794e-05 0.0040000000000000001 0.001 -0.002 0 0 0 0 0 0 0 1 0 0
931 1 2.7469507039915797e-06 1.3734753519957898e-06 1.0853035400586843e-14 3.6000000000000333e-05 3.8000000000001595e-05 6.3999999999997463e-05 0.00011600000000000033 3.8000000000001595e-05 -1.600000000000253e-05 0.0040000000000000001 0.001 -0.002 0 0 0 0 0 0 0 1 0 -1
932 1 1.9236855526776641e-06 9.6184277633883203e-07 3.7273559839127207e-15 3.6000000000000333e-05 3.8000000000001595e-05 7.1999999999998809e-05 0.00011600000000000033 3.8000000000001595e-05 -8.0000000000011838e-06 0.0040000000000000001 0.001 -0.002 0 0 0 0 0 0 0 1 0 -1
933 1 1.4687879814828625e-06 7.3439399074143125e-07 1.6591129491288253e-15 3.6000000000000333e-05 3.8000000000001595e-05 1.6970437447137916e-19 0.00011600000000000033 3.8000000000001595e-05 1.6970437447137916e-19 0.0040000000000000001 0.001 -0.002 0 0 0 0 0 0 0 1 0 0
934 1 2.7531954860322547e-06 1.3765977430161273e-06 1.092722206129605e-14 3.6000000000000333e-05 3.8000000000001595e-05 8.0000000000001911e-06 0.00011600000000000033 3.8000000000001595e-05 8.0000000000001911e-06 0.0040000000000000001 0.001 -0.002 0 0 0 0 0 0 0 1 0 0
935 1 1.1516396505116009e-06 5.7581982525580043e-07 7.9973932074513294e-16 3.6000000000000333e-05 3.8000000000001595e-05 1.5999999999999264e-05 0.00011600000000000033 3.8000000000001595e-05 1.5999999999999264e-05 0.0040000000000000001 0.001 -0.002 0 0 0 0 0 0 0 1 0 0
936 1 1.6557945448571283e-06 8.2789727242856415e-07 2.3769386069138233e-15 3.6000000000000333e-05 3.8000000000001595e-05 2.3999999999997907e-05 0.00011600000000000033 3.8000000000001595e-05 2.3999999999997907e-05 0.0040000000000000001 0.001 -0.002 0 0 0 0 0 0 0 1 0 0
937 1 1.1565131841368545e-06 5.7825659206842726e-07 8.0993540985901719e-16 3.6000000000000333e-05 3.8000000000001595e-05 3.19999999999968e-05 0.00011600000000000033 3.8000000000001595e-05 3.19999999999968e-05 0.0040000000000000001 0.001 -0.002 0 0 0 0 0 0 0 1 0 0
938 1 1.6742749015238879e-06 8.3713745076194394e-07 2.4574173664715803e-15 3.6000000000000333e-05 3.8000000000001595e-05 3.9999999999996798e-05 0.00011600000000000033 3.8000000000001595e-05 3.9999999999996798e-05 0.0040000000000000001 0.001 -0.002 0 0 0 0 0 0 0 1 0 0
939 1 2.0785126065887932e-06 1.0392563032943966e-06 4.7017183646621085e-15 3.6000000000000333e-05 3.8000000000001595e-05 4.7999999999996803e-05 0.00011600000000000033 3.8000000000001595e-05 4.7999999999996803e-05 0.0040000000000000001 0.001 -0.002 0 0 0 0 0 0 0 1 0 0
940 1 1.9198926848671108e-06 9.5994634243355538e-07 3.7053521081080084e-15 3.6000000000000333e-05 3.8000000000001595e-05 5.5999999999996794e-05 0.00011600000000000033 3.8000000000001595e-05 5.5999999999996794e-05 0.0040000000000000001 0.001 -0.002 0 0 0 0 0 0 0 1 0 0
941 1 2.0592118054422275e-06 1.0296059027211137e-06 4.571952192169549e-15 3.6000000000000333e-05 4.6000000000001599e-05 6.3999999999997463e-05 0.00011600000000000033 4.6000000000001599e-05 -1.600000000000253e-05 0.0040000000000000001 0.001 -0.002 0 0 0 0 0 0 0 1 0 -1
942 1 2.0540075229223783e-06 1.0270037614611892e-06 4.5373753985332492e-15 3.6000000000000333e-05 4.6000000000001599e-05 7.1999999999998809e-05 0.00011600000000000033 4.6000000000001599e-05 -8.0000000000011838e-06 0.0040000000000000001 0.001 -0.002 0 0 0 0 0 0 0 1 0 -1
943 1 3.1011154463918321e-06 1.5505577231959161e-06 1.5615375239972226e-14 3.6000000000000333e-05 4.6000000000001599e-05 1.6970437447137916e-19 0.00011600000000000033 4.6000000000001599e-05 1.6970437447137916e-19 0.0040000000000000001 0.001 -0.002 0 0 0 0 0 0 0 1 0 0
944 1 3.1836083245033405e-06 1.5918041622516702e-06 1.6894973588372359e-14 3.6000000000000333e-05 4.6000000000001599e-05 8.0000000000001911e-06 0.00011600000000000033 4.6000000000001599e-05 8.0000000000001911e-06 0.0040000000000000001 0.001 -0.002 0 0 0 0 0 0 0 1 0 0
945 1 1.9823321300150411e-06 9.9116606500752056e-07 4.0787574755436874e-15 3.6000000000000333e-05 4.6000000000001599e-05 1.5999999999999264e-05 0.00011600000000000033 4.6000000000001599e-05 1.5999999999999264e-05 0.0040000000000000001 0.001 -0.002 0 0 0 0 0 0 0 1 0 0
946 1 2.5259493775311537e-06 1.2629746887655769e-06 8.4386417545939124e-15 3.6000000000000333e-05 4.6000000000001599e-05 2.3999999999997907e-05 0.00011600000000000033 4.6000000000001599e-05 2.3999999999997907e-05 0.0040000000000000001 0.001 -0.002 0 0 0 0 0 0 0 1 0 0
947 1 2.9570201495325931e-06 1.4785100747662965e-06 1.353821709194612e-14 3.6000000000000333e-05 4.6000000000001599e-05 3.19999999999968e-05 0.00011600000000000033 4.6000000000001599e-05 3.19999999999968e-05 0.0040000000000000001 0.001 -0.002 0 0 0 0 0 0 0 1 0 0
948 1 2.4999760588787098e-06 1.2499880294393549e-06 8.1809958295656392e-15 3.6000000000000333e-05 4.6000000000001599e-05 3.9999999999996798e-05 0.00011600000000000033 4.6000000000001599e-05 3.9999999999996798e-05 0.0040000000000000001 0.001 -0.002 0 0 0 0 0 0 0 1 0 0
949 1 1.494055701088132e-06 7.4702785054406601e-07 1.7462201265521343e-15 3.6000000000000333e-05 4.6000000000001599e-05 4.7999999999996803e-05 0.00011600000000000033 4.6000000000001599e-05 4.7999999999996803e-05 0.0040000000000000001 0.001 -0.002 0 0 0 0 0 0 0 1 0 0
950 1 1.3539258494318184e-06 6.7696292471590919e-07 1.2995208808518892e-15 3.6000000000000333e-05 4.6000000000001599e-05 5.5999999999996794e-05 0.00011600000000000033 4.6000000000001599e-05 5.5999999999996794e-05 0.0040000000000000001 0.001 -0.002 0 0 0 0 0 0 0 1 0 0
951 1 2.9219613891012846e-06 1.4609806945506423e-06 1.306237179271597e-14 3.6000000000000333e-05 5.4000000000001597e-05 6.3999999999997463e-05 0.00011600000000000033 5.4000000000001597e-05 -1.600000000000253e-05 0.0040000000000000001 0.001 -0.002 0 0 0 0 0 0 0 1 0 -1
952 1 2.9411662841555936e-06 1.4705831420777968e-06 1.3321629741029121e-14 3.6000000000000333e-05 5.4000000000001597e-05 7.1999999999998809e-05 0.00011600000000000033 5.4000000000001597e-05 -8.0000000000011838e-06 0.0040000000000000001 0.001 -0.002 0 0 0 0 0 0 0 1 0 -1
953 1 1.540586670879843e-06 7.7029333543992152e-07 1.9145073166168175e-15 3.6000000000000333e-05 5.4000000000001597e-05 1.6970437447137916e-19 0.00011600000000000033 5.4000000000001597e-05 1.6970437447137916e-19 0.0040000000000000001 0.001 -0.002 0 0 0 0 0 0 0 1 0 0
954 1 1.6320338229624851e-06 8.1601691148124255e-07 2.2760724778752263e-15 3.6000000000000333e-05 5.4000000000001597e-05 8.0000000000001911e-06 0.00011600000000000033 5.4000000000001597e-05 8.0000000000001911e-06 0.0040000000000000001 0.001 -0.002 0 0 0 0 0 0 0 1 0 0
955 1 1.7842977821329135e-06 8.9214889106645673e-07 2.9744086080143168e-15 3.6000000000000333e-05 5.4000000000001597e-05 1.5999999999999264e-05 0.00011600000000000033 5.4000000000001597e-05 1.5999999999999264e-05 0.0040000000000000001 0.001 -0.002 0 0 0 0 0 0 0 1 0 0
956 1 3.2511645761218153e-06 1.6255822880609077e-06 1.7993493250009256e-14 3.6000000000000333e-05 5.4000000000001597e-05 2.3999999999997907e-05 0.00011600000000000033 5.4000000000001597e-05 2.3999999999997907e-05 0.0040000000000000001 0.001 -0.002 0 0 0 0 0 0 0 1 0 0
957 1 1.9940297045201007e-06 9.9701485226005037e-07 4.1513896007951961e-15 3.6000000000000333e-05 5.4000000000001597e-05 3.19999999999968e-05 0.00011600000000000033 5.4000000000001597e-05 3.19999999999968e-05 0.0040000000000000001 0.001 -0.002 0 0 0 0 0 0 0 1 0 0
958 1 2.9324126449119777e-06 1.4662063224559889e-06 1.3203037993149332e-14 3.6000000000000333e-05 5.4000000000001597e-05 3.9999999999996798e-05 0.00011600000000000033 5.4000000000001597e-05 3.9999999999996798e-05 0.0040000000000000001 0.001 -0.002 0 0 0 0 0 0 0 1 0 0
959 1 3.9034894643074966e-06 1.9517447321537483e-06 3.1142800011308795e-14 3.6000000000000333e-05 5.4000000000001597e-05 4.7999999999996803e-05 0.00011600000000000033 5.4000000000001597e-05 4.7999999999996803e-05 0.0040000000000000001 0.001 -0.002 0 0 0 0 0 0 0 1 0 0
960 1 1.7028339637629369e-06 8.5141698188146843e-07 2.5853273088007782e-15 3.6000000000000333e-05 5.4000000000001597e-05 5.5999999999996794e-05 0.00011600000000000033 5.4000000000001597e-05 5.5999999999996794e-05 0.0040000000000000001 0.001 -0.002 0 0 0 0 0 0 0 1 0 0
961 1 2.5037603162180124e-06 1.2518801581090062e-06 8.218203242270331e-15 3.6000000000000333e-05 6.2000000000000938e-05 6.3999999999997463e-05 0.00011600000000000033 6.2000000000000938e-05 -1.600000000000253e-05 0.0040000000000000001 0.001 -0.002 0 0 0 0 0 0 0 1 0 -1
962 1 2.0513274695523398e-06 1.0256637347761699e-06 4.519637564296459e-15 3.6000000000000333e-05 6.2000000000000938e-05 7.1999999999998809e-05 0.00011600000000000033 6.2000000000000938e-05 -8.0000000000011838e-06 0.0040000000000000001 0.001 -0.002 0 0 0 0 0 0 0 1 0 -1
963 1 1.5329310685422282e-06 7.6646553427111408e-07 1.886107757473246e-15 3.6000000000000333e-05 6.2000000000000938e-05 1.6970437447137916e-19 0.00011600000000000033 6.2000000000000938e-05 1.6970437447137916e-19 0.0040000000000000001 0.001 -0.002 0 0 0 0 0 0 0 1 0 0
964 1 2.3497911860249561e-06 1.174895593012478e-06 6.7933882174864265e-15 3.6000000000000333e-05 6.2000000000000938e-05 8.0000000000001911e-06 0.00011600000000000033 6.2000000000000938e-05 8.0000000000001911e-06 0.0040000000000000001 0.001 -0.002 0 0 0 0 0 0 0 1 0 0
965 1 3.7759970989755712e-06 1.8879985494877856e-06 2.8189902787090127e-14 3.6000000000000333e-05 6.2000000000000938e-05 1.5999999999999264e-05 0.00011600000000000033 6.2000000000000938e-05 1.5999999999999264e-05 0.0040000000000000001 0.001 -0.002 0 0 0 0 0 0 0 1 0 0
966 1 2.5875882797826347e-06 1.2937941398913173e-06 9.0716053496911301e-15 3.6000000000000333e-05 6.2000000000000938e-05 2.3999999999997907e-05 0.00011600000000000033 6.2000000000000938e-05 2.3999999999997907e-05 0.0040000000000000001 0.001 -0.002 0 0 0 0 0 0 0 1 0 0
967 1 1.6402327834138357e-06 8.2011639170691787e-07 2.3105484838129134e-15 3.6000000000000333e-05 6.2000000000000938e-05 3.19999999999968e-05 0.00011600000000000033 6.2000000000000938e-05 3.19999999999968e-05 0.0040000000000000001 0.001 -0.002 0 0 0 0 0 0 0 1 0 0
968 1 1.6877590614105869e-06 8.4387953070529347e-07 2.5172709697168496e-15 3.6000000000000333e-05 6.2000000000000938e-05 3.9999999999996798e-05 0.00011600000000000033 6.2000000000000938e-05 3.9999999999996798e-05 0.0040000000000000001 0.001 -0.002 0 0 0 0 0 0 0 1 0 0
969 1 3.3711140329835254e-06 1.6855570164917627e-06 2.0059446834170107e-14 3.6000000000000333e-05 6.2000000000000938e-05 4.7999999999996803e-05 0.00011600000000000033 6.2000000000000938e-05 4.7999999999996803e-05 0.0040000000000000001 0.001 -0.002 0 0 0 0 0 0 0 1 0 0
970 1 1.8406692807631392e-06 9.2033464038156958e-07 3.2653212558221952e-15 3.6000000000000333e-05 6.2000000000000938e-05 5.5999999999996794e-05 0.00011600000000000033 6.2000000000000938e-05 5.5999999999996794e-05 0.0040000000000000001 0.001 -0.002 0 0 0 0 0 0 0 1 0 0
971 1 1.2835069789179971e-06 6.4175348945899857e-07 1.1071165057841386e-15 3.6000000000000333e-05 6.9999999999995522e-05 6.3999999999997463e-05 0.00011600000000000033 6.9999999999995522e-05 -1.600000000000253e-05 0.0040000000000000001 0.001 -0.002 0 0 0 0 0 0 0 1 0 -1
972 1 1.8066594817375587e-06 9.0332974086877934e-07 3.0876462407388103e-15 3.6000000000000333e-05 6.9999999999995522e-05 7.1999999999998809e-05 0.00011600000000000033 6.9999999999995522e-05 -8.0000000000011838e-06 0.0040000000000000001 0.001 -0.002 0 0 0 0 0 0 0 1 0 -1
973 1 3.1601297828590344e-06 1.5800648914295172e-06 1.6523931242592785e-14 3.6000000000000333e-05 6.9999999999995522e-05 1.6970437447137916e-19 0.00011600000000000033 6.9999999999995522e-05 1.6970437447137916e-19 0.0040000000000000001 0.001 -0.002 0 0 0 0 0 0 0 1 0 0
974 1 1.2520720502794449e-06 6.2603602513972247e-07 1.0277478698169369e-15 3.6000000000000333e-05 6.9999999999995522e-05 8.0000000000001911e-06 0.00011600000000000033 6.9999999999995522e-05 8.0000000000001911e-06 0.0040000000000000001 0.001 -0.002 0 0 0 0 0 0 0 1 0 0
975 1 2.1468605670397372e-06 1.0734302835198686e-06 5.180958809544835e-15 3.6000000000000333e-05 6.9999999999995522e-05 1.5999999999999264e-05 0.00011600000000000033 6.9999999999995522e-05 1.5999999999999264e-05 0.0040000000000000001 0.001 -0.002 0 0 0 0 0 0 0 1 0 0
976 1 3.2014615383075426e-06 1.6007307691537713e-06 1.7180804194631173e-14 3.6000000000000333e-05 6.9999999999995522e-05 2.3999999999997907e-05 0.00011600000000000033 6.9999999999995522e-05 2.3999999999997907e-05 0.0040000000000000001 0.001 -0.002 0 0 0 0 0 0 0 1 0 0
977 1 2.0137209289015713e-06 1.0068604644507856e-06 4.2755941446521452e-15 3.6000000000000333e-05 6.9999999999995522e-05 3.19999999999968e-05 0.00011600000000000033 6.9999999999995522e-05 3.19999999999968e-05 0.0040000000000000001 0.001 -0.002 0 0 0 0 0 0 0 1 0 0
978 1 4.4308511500357298e-06 2.2154255750178649e-06 4.5547034303873206e-14 3.6000000000000333e-05 6.9999999999995522e-05 3.9999999999996798e-05 0.00011600000000000033 6.9999999999995522e-05 3.9999999999996798e-05 0.0040000000000000001 0.001 -0.002 0 0 0 0 0 0 0 1 0 0
979 1 1.2447167857608278e-06 6.2235839288041389e-07 1.009741628527401e-15 3.6000000000000333e-05 6.9999999999995522e-05 4.7999999999996803e-05 0.00011600000000000033 6.9999999999995522e-05 4.7999999999996803e-05 0.0040000000000000001 0.001 -0.002 0 0 0 0 0 0 0 1 0 0
980 1 3.2498275661850399e-06 1.6249137830925199e-06 1.7971303428491081e-14 3.6000000000000333e-05 6.9999999999995522e-05 5.5999999999996794e-05 0.00011600000000000033 6.9999999999995522e-05 5.5999999999996794e-05 0.0040000000000000001 0.001 -0.002 0 0 0 0 0 0 0 1 0 0
981 1 1.3255714155265731e-06 6.6278570776328655e-07 1.2195735970602465e-15 3.6000000000000333e-05 7.7999999999994822e-05 6.3999999999997463e-05 0.00011600000000000033 7.7999999999994822e-05 -1.600000000000253e-05 0.0040000000000000001 0.001 -0.002 0 0 0 0 0 0 0 1 0 -1
982 1 1.0783105170463044e-06 5.3915525852315219e-07 6.5649306904482649e-16 3.6000000000000333e-05 7.7999999999994822e-05 7.1999999999998809e-05 0.00011600000000000033 7.7999999999994822e-05 -8.0000000000011838e-06 0.0040000000000000001 0.001 -0.002 0 0 0 0 0 0 0 1 0 -1
983 1 1.3605637189313562e-06 6.8028185946567809e-07 1.3187281585455191e-15 3.6000000000000333e-05 7.7999999999994822e-05 1.6970437447137916e-19 0.00011600000000000033 7.7999999999994822e-05 1.6970437447137916e-19 0.0040000000000000001 0.001 -0.002 0 0 0 0 0 0 0 1 0 0
984 1 2.03353762745092e-06 1.01676881372546e-06 4.4030666610028826e-15 3.6000000000000333e-05 7.7999999999994822e-05 8.0000000000001911e-06 0.00011600000000000033 7.7999999999994822e-05 8.0000000000001911e-06 0.0040000000000000001 0.001 -0.002 0 0 0 0 0 0 0 1 0 0
985 1 2.5154976344053607e-06 1.2577488172026804e-06 8.33432365922044e-15 3.6000000000000333e-05 7.7999999999994822e-05 1.5999999999999264e-05 0.00011600000000000033 7.7999999999994822e-05 1.5999999999999264e-05 0.0040000000000000001 0.001 -0.002 0 0 0 0 0 0 0 1 0 0
986 1 1.4932155526207649e-06 7.4660777631038243e-07 1.7432759404653407e-15 3.6000000000000333e-05 7.7999999999994822e-05 2.3999999999997907e-05 0.00011600000000000033 7.7999999999994822e-05 2.3999999999997907e-05 0.0040000000000000001 0.001 -0.002 0 0 0 0 0 0 0 1 0 0
987 1 1.7116102293532864e-06 8.5580511467664321e-07 2.6255073740193244e-15 3.6000000000000333e-05 7.7999999999994822e-05 3.19999999999968e-05 0.00011600000000000033 7.7999999999994822e-05 3.19999999999968e-05 0.0040000000000000001 0.001 -0.002 0 0 0 0 0 0 0 1 0 0
988 1 1.2321658610676658e-06 6.1608293053383292e-07 9.7950382871472977e-16 3.6000000000000333e-05 7.7999999999994822e-05 3.9999999999996798e-05 0.00011600000000000033 7.7999999999994822e-05 3.9999999999996798e-05 0.0040000000000000001 0.001 -0.002 0 0 0 0 0 0 0 1 0 0
989 1 2.2957789419133974e-06 1.1478894709566987e-06 6.3356156991186051e-15 3.6000000000000333e-05 7.7999999999994822e-05 4.7999999999996803e-05 0.00011600000000000033 7.7999999999994822e-05 4.7999999999996803e-05 0.0040000000000000001 0.001 -0.002 0 0 0 0 0 0 0 1 0 0
990 1 1.8602126980959374e-06 9.3010634904796869e-07 3.3704387259343476e-15 3.6000000000000333e-05 7.7999999999994822e-05 5.5999999999996794e-05 0.00011600000000000033 7.7999999999994822e-05 5.5999999999996794e-05 0.0040000000000000001 0.001 -0.002 0 0 0 0 0 0 0 1 0 0
991 1 1.9225359634362901e-06 9.6126798171814504e-07 3.7206776031651411e-15 3.6000000000000333e-05 5.9999999999978741e-06 6.3999999999997463e-05 0.00011600000000000033 8.5999999999997862e-05 -1.600000000000253e-05 0.0040000000000000001 0.001 -0.002 0 0 0 0 0 0 0 1 1 -1
992 1 1.5371710309039424e-06 7.6858551545197118e-07 1.9018015461529099e-15 3.6000000000000333e-05 5.9999999999978741e-06 7.1999999999998809e-05 0.00011600000000000033 8.5999999999997862e-05 -8.0000000000011838e-06 0.0040000000000000001 0.001 -0.002 0 0 0 0 0 0 0 1 1 -1
993 1 1.3205907183908499e-06 6.6029535919542496e-07 1.205877922310769e-15 3.6000000000000333e-05 5.9999999999978741e-06 1.6970437447137916e-19 0.00011600000000000033 8.5999999999997862e-05 1.6970437447137916e-19 0.0040000000000000001 0.001 -0.002 0 0 0 0 0 0 0 1 1 0
994 1 1.4970541765518833e-06 7.4852708827594165e-07 1.7567549015560661e-15 3.6000000000000333e-05 5.9999999999978741e-06 8.0000000000001911e-06 0.00011600000000000033 8.5999999999997862e-05 8.0000000000001911e-06 0.0040000000000000001 0.001 -0.002 0 0 0 0 0 0 0 1 1 0
995 1 2.5881747916588237e-06 1.2940873958294118e-06 9.0777753540847602e-15 3.6000000000000333e-05 5.9999999999978741e-06 1.5999999999999264e-05 0.00011600000000000033 8.5999999999997862e-05 1.5999999999999264e-05 0.0040000000000000001 0.001 -0.002 0 0 0 0 0 0 0 1 1 0
996 1 1.4055058968467051e-06 7.0275294842335254e-07 1.4537731329664929e-15 3.6000000000000333e-05 5.9999999999978741e-06 2.3999999999997907e-05 0.00011600000000000033 8.5999999999997862e-05 2.3999999999997907e-05 0.0040000000000000001 0.001 -0.002 0 0 0 0 0 0 0 1 1 0
997 1 3.439218284699425e-06 1.7196091423497125e-06 2.1299913780573273e-14 3.6000000000000333e-05 5.9999999999978741e-06 3.19999999999968e-05 0.00011600000000000033 8.5999999999997862e-05 3.19999999999968e-05 0.0040000000000000001 0.001 -0.002 0 0 0 0 0 0 0 1 1 0
998 1 2.3067683582161618e-06 1.1533841791080809e-06 6.427033728964706e-15 3.6000000000000333e-05 5.9999999999978741e-06 3.9999999999996798e-05 0.00011600000000000033 8.5999999999997862e-05 3.9999999999996798e-05 0.0040000000000000001 0.001 -0.002 0 0 0 0 0 0 0 1 1 0
999 1 1.78785030348352e-06 8.9392515174175998e-07 2.9922100685025469e-15 3.6000000000000333e-05 5.9999999999978741e-06 4.7999999999996803e-05 0.00011600000000000033 8.5999999999997862e-05 4.7999999999996803e-05 0.0040000000000000001 0.001 -0.002 0 0 0 0 0 0 0 1 1 0
1000 1 1.3974340727075274e-06 6.9871703635376368e-07 1.4288696339655509e-15 3.6000000000000333e-05 5.9999999999978741e-06 5.5999999999996794e-05 0.00011600000000000033 8.5999999999997862e-05 5.5999999999996794e-05 0.0040000000000000001 0.001 -0.002 0 0 0 0 0 0 0 1 1 0
