LAMMPS (2 Sep 2026)
Reading data file ...
  orthogonal box = (0 0 0) to (8e-05 8e-05 8e-05)
  1 by 1 by 1 MPI processor grid
  reading atoms ...
  1000 atoms
  reading velocities ...
  1000 velocities
  read_data CPU = 0.007 seconds
Generated 0 of 0 mixed pair_coeff terms from geometric mixing rule
Neighbor list info ...
  update: every = 1 steps, delay = 0 steps, check = no
  max neighbors/atom: 2000, page size: 100000
  master list distance cutoff = 7e-06
  ghost atom cutoff = 7e-06
  binsize = 3.5e-06, bins = 23 23 23
  1 neighbor lists, perpetual/occasional/extra = 1 0 0
  (1) pair zero, perpetual
      attributes: half, newton off
      pair build: half/bin/atomonly/newtoff
      stencil: full/bin/3d
      bin: standard
Setting up Verlet run ...
  Unit style    : si
  Current step  : 0
  Time step     : 1e-05
Per MPI rank memory allocation (min/avg/max) = 3.927 | 3.927 | 3.927 Mbytes
   Step        Atoms         Time          KinEng    
         0        1000  0 6.5433282456135671e-17
Loop time of 9.91e-07 on 1 procs for 0 steps with 1000 atoms

100.9% CPU use with 1 MPI tasks x no OpenMP threads

MPI task timing breakdown:
Section |  min time  |  avg time  |  max time  |%varavg| %total
---------------------------------------------------------------
Pair    | 0          | 0          | 0          |   0.0 |  0.00
Neigh   | 0          | 0          | 0          |   0.0 |  0.00
Comm    | 0          | 0          | 0          |   0.0 |  0.00
Output  | 0          | 0          | 0          |   0.0 |  0.00
Modify  | 0          | 0          | 0          |   0.0 |  0.00
Other   |            | 9.91e-07   |            |       |100.00

Nlocal:           1000 ave        1000 max        1000 min
Histogram: 1 0 0 0 0 0 0 0 0 0
Nghost:            728 ave         728 max         728 min
Histogram: 1 0 0 0 0 0 0 0 0 0
Neighs:              0 ave           0 max           0 min
Histogram: 1 0 0 0 0 0 0 0 0 0

Total # of neighbors = 0
Ave neighs/atom = 0
Neighbor list builds = 0
Dangerous builds not checked
Generated 0 of 0 mixed pair_coeff terms from geometric mixing rule
Setting up Verlet run ...
  Unit style    : si
  Current step  : 0
  Time step     : 1e-05
Per MPI rank memory allocation (min/avg/max) = 3.927 | 3.927 | 3.927 Mbytes
   Step        Atoms         Time          KinEng    
         0        1000  0 6.5433282456135671e-17
       100        1000  0.001 6.5433282456135671e-17
       200        1000  0.002 6.5433282456135671e-17
       300        1000  0.0030000000000000001 6.5433282456135671e-17
       400        1000  0.0040000000000000001 6.5433282456135671e-17
       500        1000  0.0050000000000000001 6.5433282456135671e-17
       600        1000  0.0060000000000000001 6.5433282456135671e-17
       700        1000  0.0070000000000000001 6.5433282456135671e-17
       800        1000  0.0080000000000000002 6.5433282456135671e-17
       900        1000  0.0090000000000000011 6.5433282456135671e-17
      1000        1000  0.01 6.5433282456135733e-17
Loop time of 0.13782 on 1 procs for 1000 steps with 1000 atoms

100.0% CPU use with 1 MPI tasks x no OpenMP threads

MPI task timing breakdown:
Section |  min time  |  avg time  |  max time  |%varavg| %total
---------------------------------------------------------------
Pair    | 3.2834e-05 | 3.2834e-05 | 3.2834e-05 |   0.0 |  0.02
Neigh   | 0.11329    | 0.11329    | 0.11329    |   0.0 | 82.20
Comm    | 0.012692   | 0.012692   | 0.012692   |   0.0 |  9.21
Output  | 7.4438e-05 | 7.4438e-05 | 7.4438e-05 |   0.0 |  0.05
Modify  | 0.0082957  | 0.0082957  | 0.0082957  |   0.0 |  6.02
Other   |            | 0.003439   |            |       |  2.50

Nlocal:           1000 ave        1000 max        1000 min
Histogram: 1 0 0 0 0 0 0 0 0 0
Nghost:            584 ave         584 max         584 min
Histogram: 1 0 0 0 0 0 0 0 0 0
Neighs:              0 ave           0 max           0 min
Histogram: 1 0 0 0 0 0 0 0 0 0

Total # of neighbors = 0
Ave neighs/atom = 0
Neighbor list builds = 1000
Dangerous builds not checked
ENGINE_CASE_COMPLETED
Total wall time: 0:00:00
