Frozen SonoVue sampler input; technical rigid-sphere engine case

1000 atoms
1 atom types

0 7.9999999999999993e-05 xlo xhi
0 7.9999999999999993e-05 ylo yhi
0 7.9999999999999993e-05 zlo zhi

Atoms # sphere

1 1 2.4294173717160194e-06 1000 3.9999999999999998e-06 3.9999999999999998e-06 3.9999999999999998e-06
2 1 2.0919482960331784e-06 1000 3.9999999999999998e-06 3.9999999999999998e-06 1.2e-05
3 1 1.4684370464205234e-06 1000 3.9999999999999998e-06 3.9999999999999998e-06 1.9999999999999998e-05
4 1 2.203626863156132e-06 1000 3.9999999999999998e-06 3.9999999999999998e-06 2.8e-05
5 1 1.5539476822357882e-06 1000 3.9999999999999998e-06 3.9999999999999998e-06 3.6000000000000001e-05
6 1 2.1195153229157058e-06 1000 3.9999999999999998e-06 3.9999999999999998e-06 4.3999999999999999e-05
7 1 1.7974989281121049e-06 1000 3.9999999999999998e-06 3.9999999999999998e-06 5.1999999999999997e-05
8 1 2.7885230891174363e-06 1000 3.9999999999999998e-06 3.9999999999999998e-06 5.9999999999999995e-05
9 1 2.2760224327906637e-06 1000 3.9999999999999998e-06 3.9999999999999998e-06 6.7999999999999999e-05
10 1 1.5889468195683916e-06 1000 3.9999999999999998e-06 3.9999999999999998e-06 7.5999999999999991e-05
11 1 1.3063311737986631e-06 1000 3.9999999999999998e-06 1.2e-05 3.9999999999999998e-06
12 1 2.4830031147139542e-06 1000 3.9999999999999998e-06 1.2e-05 1.2e-05
13 1 1.8421809291326118e-06 1000 3.9999999999999998e-06 1.2e-05 1.9999999999999998e-05
14 1 3.0150086589025151e-06 1000 3.9999999999999998e-06 1.2e-05 2.8e-05
15 1 3.2170232318132096e-06 1000 3.9999999999999998e-06 1.2e-05 3.6000000000000001e-05
16 1 1.5682114487912273e-06 1000 3.9999999999999998e-06 1.2e-05 4.3999999999999999e-05
17 1 1.8500492028859351e-06 1000 3.9999999999999998e-06 1.2e-05 5.1999999999999997e-05
18 1 1.9247255518108104e-06 1000 3.9999999999999998e-06 1.2e-05 5.9999999999999995e-05
19 1 2.1401249194732724e-06 1000 3.9999999999999998e-06 1.2e-05 6.7999999999999999e-05
20 1 1.2267829678051698e-06 1000 3.9999999999999998e-06 1.2e-05 7.5999999999999991e-05
21 1 1.0805533032259198e-06 1000 3.9999999999999998e-06 1.9999999999999998e-05 3.9999999999999998e-06
22 1 1.3952925731669071e-06 1000 3.9999999999999998e-06 1.9999999999999998e-05 1.2e-05
23 1 1.7668519870383837e-06 1000 3.9999999999999998e-06 1.9999999999999998e-05 1.9999999999999998e-05
24 1 1.9000665922622412e-06 1000 3.9999999999999998e-06 1.9999999999999998e-05 2.8e-05
25 1 1.8035079156710989e-06 1000 3.9999999999999998e-06 1.9999999999999998e-05 3.6000000000000001e-05
26 1 1.399104617678304e-06 1000 3.9999999999999998e-06 1.9999999999999998e-05 4.3999999999999999e-05
27 1 2.6441978403003492e-06 1000 3.9999999999999998e-06 1.9999999999999998e-05 5.1999999999999997e-05
28 1 3.4424699819082035e-06 1000 3.9999999999999998e-06 1.9999999999999998e-05 5.9999999999999995e-05
29 1 2.5370903038835501e-06 1000 3.9999999999999998e-06 1.9999999999999998e-05 6.7999999999999999e-05
30 1 2.1689414285841368e-06 1000 3.9999999999999998e-06 1.9999999999999998e-05 7.5999999999999991e-05
31 1 3.1990322165171244e-06 1000 3.9999999999999998e-06 2.8e-05 3.9999999999999998e-06
32 1 2.1680169152339152e-06 1000 3.9999999999999998e-06 2.8e-05 1.2e-05
33 1 1.7351039492362188e-06 1000 3.9999999999999998e-06 2.8e-05 1.9999999999999998e-05
34 1 2.3123191298183369e-06 1000 3.9999999999999998e-06 2.8e-05 2.8e-05
35 1 1.6292822883727116e-06 1000 3.9999999999999998e-06 2.8e-05 3.6000000000000001e-05
36 1 2.5615826687294038e-06 1000 3.9999999999999998e-06 2.8e-05 4.3999999999999999e-05
37 1 1.9396088390321771e-06 1000 3.9999999999999998e-06 2.8e-05 5.1999999999999997e-05
38 1 1.8086270967782272e-06 1000 3.9999999999999998e-06 2.8e-05 5.9999999999999995e-05
39 1 1.2731460622094022e-06 1000 3.9999999999999998e-06 2.8e-05 6.7999999999999999e-05
40 1 1.6820308742487284e-06 1000 3.9999999999999998e-06 2.8e-05 7.5999999999999991e-05
41 1 2.6873341942780981e-06 1000 3.9999999999999998e-06 3.6000000000000001e-05 3.9999999999999998e-06
42 1 1.3045869975382891e-06 1000 3.9999999999999998e-06 3.6000000000000001e-05 1.2e-05
43 1 9.7977244496300988e-07 1000 3.9999999999999998e-06 3.6000000000000001e-05 1.9999999999999998e-05
44 1 1.3993384740919561e-06 1000 3.9999999999999998e-06 3.6000000000000001e-05 2.8e-05
45 1 1.1277971632549906e-06 1000 3.9999999999999998e-06 3.6000000000000001e-05 3.6000000000000001e-05
46 1 1.8184972588508851e-06 1000 3.9999999999999998e-06 3.6000000000000001e-05 4.3999999999999999e-05
47 1 1.3417694402649791e-06 1000 3.9999999999999998e-06 3.6000000000000001e-05 5.1999999999999997e-05
48 1 2.0800602521238142e-06 1000 3.9999999999999998e-06 3.6000000000000001e-05 5.9999999999999995e-05
49 1 2.5597464927361749e-06 1000 3.9999999999999998e-06 3.6000000000000001e-05 6.7999999999999999e-05
50 1 1.3211203577827332e-06 1000 3.9999999999999998e-06 3.6000000000000001e-05 7.5999999999999991e-05
51 1 1.5643925705288943e-06 1000 3.9999999999999998e-06 4.3999999999999999e-05 3.9999999999999998e-06
52 1 1.4465972940999361e-06 1000 3.9999999999999998e-06 4.3999999999999999e-05 1.2e-05
53 1 1.9596362485529969e-06 1000 3.9999999999999998e-06 4.3999999999999999e-05 1.9999999999999998e-05
54 1 2.2688564953753328e-06 1000 3.9999999999999998e-06 4.3999999999999999e-05 2.8e-05
55 1 1.8565029133749012e-06 1000 3.9999999999999998e-06 4.3999999999999999e-05 3.6000000000000001e-05
56 1 2.3550438192809779e-06 1000 3.9999999999999998e-06 4.3999999999999999e-05 4.3999999999999999e-05
57 1 3.8827617364573771e-06 1000 3.9999999999999998e-06 4.3999999999999999e-05 5.1999999999999997e-05
58 1 2.945689269078547e-06 1000 3.9999999999999998e-06 4.3999999999999999e-05 5.9999999999999995e-05
59 1 1.598730813825518e-06 1000 3.9999999999999998e-06 4.3999999999999999e-05 6.7999999999999999e-05
60 1 1.7143477357987399e-06 1000 3.9999999999999998e-06 4.3999999999999999e-05 7.5999999999999991e-05
61 1 1.235332137103711e-06 1000 3.9999999999999998e-06 5.1999999999999997e-05 3.9999999999999998e-06
62 1 1.2630478889786632e-06 1000 3.9999999999999998e-06 5.1999999999999997e-05 1.2e-05
63 1 2.412834257207491e-06 1000 3.9999999999999998e-06 5.1999999999999997e-05 1.9999999999999998e-05
64 1 2.0666275097221591e-06 1000 3.9999999999999998e-06 5.1999999999999997e-05 2.8e-05
65 1 2.0759999845542412e-06 1000 3.9999999999999998e-06 5.1999999999999997e-05 3.6000000000000001e-05
66 1 1.386143987867133e-06 1000 3.9999999999999998e-06 5.1999999999999997e-05 4.3999999999999999e-05
67 1 1.3846530519996288e-06 1000 3.9999999999999998e-06 5.1999999999999997e-05 5.1999999999999997e-05
68 1 3.989994832258521e-06 1000 3.9999999999999998e-06 5.1999999999999997e-05 5.9999999999999995e-05
69 1 2.8206403336526573e-06 1000 3.9999999999999998e-06 5.1999999999999997e-05 6.7999999999999999e-05
70 1 2.0797546609834775e-06 1000 3.9999999999999998e-06 5.1999999999999997e-05 7.5999999999999991e-05
71 1 1.8774639379594031e-06 1000 3.9999999999999998e-06 5.9999999999999995e-05 3.9999999999999998e-06
72 1 2.7747234223324362e-06 1000 3.9999999999999998e-06 5.9999999999999995e-05 1.2e-05
73 1 2.8481728556352065e-06 1000 3.9999999999999998e-06 5.9999999999999995e-05 1.9999999999999998e-05
74 1 1.8904384662489001e-06 1000 3.9999999999999998e-06 5.9999999999999995e-05 2.8e-05
75 1 1.8711690253966255e-06 1000 3.9999999999999998e-06 5.9999999999999995e-05 3.6000000000000001e-05
76 1 1.9725712799943477e-06 1000 3.9999999999999998e-06 5.9999999999999995e-05 4.3999999999999999e-05
77 1 1.6378934976908156e-06 1000 3.9999999999999998e-06 5.9999999999999995e-05 5.1999999999999997e-05
78 1 2.6757122417125422e-06 1000 3.9999999999999998e-06 5.9999999999999995e-05 5.9999999999999995e-05
79 1 1.4012873884800663e-06 1000 3.9999999999999998e-06 5.9999999999999995e-05 6.7999999999999999e-05
80 1 1.3139594492572107e-06 1000 3.9999999999999998e-06 5.9999999999999995e-05 7.5999999999999991e-05
81 1 2.238504579656512e-06 1000 3.9999999999999998e-06 6.7999999999999999e-05 3.9999999999999998e-06
82 1 1.8962697133416477e-06 1000 3.9999999999999998e-06 6.7999999999999999e-05 1.2e-05
83 1 1.9876618062303902e-06 1000 3.9999999999999998e-06 6.7999999999999999e-05 1.9999999999999998e-05
84 1 1.5095848033177521e-06 1000 3.9999999999999998e-06 6.7999999999999999e-05 2.8e-05
85 1 2.8028054338018511e-06 1000 3.9999999999999998e-06 6.7999999999999999e-05 3.6000000000000001e-05
86 1 1.4597480492045166e-06 1000 3.9999999999999998e-06 6.7999999999999999e-05 4.3999999999999999e-05
87 1 2.5711418086338041e-06 1000 3.9999999999999998e-06 6.7999999999999999e-05 5.1999999999999997e-05
88 1 1.4720022811746958e-06 1000 3.9999999999999998e-06 6.7999999999999999e-05 5.9999999999999995e-05
89 1 2.486049077526708e-06 1000 3.9999999999999998e-06 6.7999999999999999e-05 6.7999999999999999e-05
90 1 1.1411779797971603e-06 1000 3.9999999999999998e-06 6.7999999999999999e-05 7.5999999999999991e-05
91 1 1.4759110834254672e-06 1000 3.9999999999999998e-06 7.5999999999999991e-05 3.9999999999999998e-06
92 1 2.1474019860587779e-06 1000 3.9999999999999998e-06 7.5999999999999991e-05 1.2e-05
93 1 2.0080649777743188e-06 1000 3.9999999999999998e-06 7.5999999999999991e-05 1.9999999999999998e-05
94 1 1.3078966884527089e-06 1000 3.9999999999999998e-06 7.5999999999999991e-05 2.8e-05
95 1 1.2531215650939498e-06 1000 3.9999999999999998e-06 7.5999999999999991e-05 3.6000000000000001e-05
96 1 1.332168923925411e-06 1000 3.9999999999999998e-06 7.5999999999999991e-05 4.3999999999999999e-05
97 1 1.1811973492990075e-06 1000 3.9999999999999998e-06 7.5999999999999991e-05 5.1999999999999997e-05
98 1 2.8264174469490535e-06 1000 3.9999999999999998e-06 7.5999999999999991e-05 5.9999999999999995e-05
99 1 2.1936221630817443e-06 1000 3.9999999999999998e-06 7.5999999999999991e-05 6.7999999999999999e-05
100 1 2.3503712472815694e-06 1000 3.9999999999999998e-06 7.5999999999999991e-05 7.5999999999999991e-05
101 1 2.4082057377577303e-06 1000 1.2e-05 3.9999999999999998e-06 3.9999999999999998e-06
102 1 3.3289336626638307e-06 1000 1.2e-05 3.9999999999999998e-06 1.2e-05
103 1 1.315660567019732e-06 1000 1.2e-05 3.9999999999999998e-06 1.9999999999999998e-05
104 1 3.25301696742949e-06 1000 1.2e-05 3.9999999999999998e-06 2.8e-05
105 1 1.5884552876074334e-06 1000 1.2e-05 3.9999999999999998e-06 3.6000000000000001e-05
106 1 2.4104087835760633e-06 1000 1.2e-05 3.9999999999999998e-06 4.3999999999999999e-05
107 1 2.2611591298466979e-06 1000 1.2e-05 3.9999999999999998e-06 5.1999999999999997e-05
108 1 9.8192445473677938e-07 1000 1.2e-05 3.9999999999999998e-06 5.9999999999999995e-05
109 1 1.7654337350018458e-06 1000 1.2e-05 3.9999999999999998e-06 6.7999999999999999e-05
110 1 1.1315907840866241e-06 1000 1.2e-05 3.9999999999999998e-06 7.5999999999999991e-05
111 1 1.7572205155159001e-06 1000 1.2e-05 1.2e-05 3.9999999999999998e-06
112 1 2.8525832925114745e-06 1000 1.2e-05 1.2e-05 1.2e-05
113 1 1.7750968665018952e-06 1000 1.2e-05 1.2e-05 1.9999999999999998e-05
114 1 1.3700764609810346e-06 1000 1.2e-05 1.2e-05 2.8e-05
115 1 3.0248898332126251e-06 1000 1.2e-05 1.2e-05 3.6000000000000001e-05
116 1 3.5171754650847243e-06 1000 1.2e-05 1.2e-05 4.3999999999999999e-05
117 1 1.8929550699797927e-06 1000 1.2e-05 1.2e-05 5.1999999999999997e-05
118 1 2.750652422649976e-06 1000 1.2e-05 1.2e-05 5.9999999999999995e-05
119 1 2.4815863809917475e-06 1000 1.2e-05 1.2e-05 6.7999999999999999e-05
120 1 1.6077477396525126e-06 1000 1.2e-05 1.2e-05 7.5999999999999991e-05
121 1 1.921800309567062e-06 1000 1.2e-05 1.9999999999999998e-05 3.9999999999999998e-06
122 1 1.7063710013895018e-06 1000 1.2e-05 1.9999999999999998e-05 1.2e-05
123 1 2.4915082866260679e-06 1000 1.2e-05 1.9999999999999998e-05 1.9999999999999998e-05
124 1 1.3080398821014113e-06 1000 1.2e-05 1.9999999999999998e-05 2.8e-05
125 1 1.9065535892376861e-06 1000 1.2e-05 1.9999999999999998e-05 3.6000000000000001e-05
126 1 3.047100470562774e-06 1000 1.2e-05 1.9999999999999998e-05 4.3999999999999999e-05
127 1 1.1575450429150173e-06 1000 1.2e-05 1.9999999999999998e-05 5.1999999999999997e-05
128 1 1.3129565731054135e-06 1000 1.2e-05 1.9999999999999998e-05 5.9999999999999995e-05
129 1 1.2691075673935047e-06 1000 1.2e-05 1.9999999999999998e-05 6.7999999999999999e-05
130 1 1.8961918926700102e-06 1000 1.2e-05 1.9999999999999998e-05 7.5999999999999991e-05
131 1 1.8846803178541512e-06 1000 1.2e-05 2.8e-05 3.9999999999999998e-06
132 1 1.7696267152550336e-06 1000 1.2e-05 2.8e-05 1.2e-05
133 1 2.0568690913761279e-06 1000 1.2e-05 2.8e-05 1.9999999999999998e-05
134 1 1.7078002535236641e-06 1000 1.2e-05 2.8e-05 2.8e-05
135 1 2.9117782372198109e-06 1000 1.2e-05 2.8e-05 3.6000000000000001e-05
136 1 2.3101164659579757e-06 1000 1.2e-05 2.8e-05 4.3999999999999999e-05
137 1 2.7637637262600853e-06 1000 1.2e-05 2.8e-05 5.1999999999999997e-05
138 1 1.5094044045371965e-06 1000 1.2e-05 2.8e-05 5.9999999999999995e-05
139 1 2.0537479269782489e-06 1000 1.2e-05 2.8e-05 6.7999999999999999e-05
140 1 2.0255993542045429e-06 1000 1.2e-05 2.8e-05 7.5999999999999991e-05
141 1 1.8114801672906281e-06 1000 1.2e-05 3.6000000000000001e-05 3.9999999999999998e-06
142 1 2.2350696771183962e-06 1000 1.2e-05 3.6000000000000001e-05 1.2e-05
143 1 1.3839955573640697e-06 1000 1.2e-05 3.6000000000000001e-05 1.9999999999999998e-05
144 1 1.5869438581644619e-06 1000 1.2e-05 3.6000000000000001e-05 2.8e-05
145 1 2.2127106145508515e-06 1000 1.2e-05 3.6000000000000001e-05 3.6000000000000001e-05
146 1 1.8779219943777195e-06 1000 1.2e-05 3.6000000000000001e-05 4.3999999999999999e-05
147 1 1.2113257289920328e-06 1000 1.2e-05 3.6000000000000001e-05 5.1999999999999997e-05
148 1 2.863501956957501e-06 1000 1.2e-05 3.6000000000000001e-05 5.9999999999999995e-05
149 1 1.4082250298613726e-06 1000 1.2e-05 3.6000000000000001e-05 6.7999999999999999e-05
150 1 3.1911815873599486e-06 1000 1.2e-05 3.6000000000000001e-05 7.5999999999999991e-05
151 1 1.3727991405195074e-06 1000 1.2e-05 4.3999999999999999e-05 3.9999999999999998e-06
152 1 3.2447986934739031e-06 1000 1.2e-05 4.3999999999999999e-05 1.2e-05
153 1 1.2148090521896198e-06 1000 1.2e-05 4.3999999999999999e-05 1.9999999999999998e-05
154 1 2.4355096708459025e-06 1000 1.2e-05 4.3999999999999999e-05 2.8e-05
155 1 2.2739124678737534e-06 1000 1.2e-05 4.3999999999999999e-05 3.6000000000000001e-05
156 1 2.9596743635863942e-06 1000 1.2e-05 4.3999999999999999e-05 4.3999999999999999e-05
157 1 1.4497645986693654e-06 1000 1.2e-05 4.3999999999999999e-05 5.1999999999999997e-05
158 1 2.2071015718602427e-06 1000 1.2e-05 4.3999999999999999e-05 5.9999999999999995e-05
159 1 1.3348905980403462e-06 1000 1.2e-05 4.3999999999999999e-05 6.7999999999999999e-05
160 1 1.1864509814688126e-06 1000 1.2e-05 4.3999999999999999e-05 7.5999999999999991e-05
161 1 2.5035107187864654e-06 1000 1.2e-05 5.1999999999999997e-05 3.9999999999999998e-06
162 1 1.050655936441632e-06 1000 1.2e-05 5.1999999999999997e-05 1.2e-05
163 1 1.2970036019747897e-06 1000 1.2e-05 5.1999999999999997e-05 1.9999999999999998e-05
164 1 1.672225377482246e-06 1000 1.2e-05 5.1999999999999997e-05 2.8e-05
165 1 1.6601612965999587e-06 1000 1.2e-05 5.1999999999999997e-05 3.6000000000000001e-05
166 1 1.7207479874811187e-06 1000 1.2e-05 5.1999999999999997e-05 4.3999999999999999e-05
167 1 1.5333750066960497e-06 1000 1.2e-05 5.1999999999999997e-05 5.1999999999999997e-05
168 1 1.6597072061876011e-06 1000 1.2e-05 5.1999999999999997e-05 5.9999999999999995e-05
169 1 1.37477737253786e-06 1000 1.2e-05 5.1999999999999997e-05 6.7999999999999999e-05
170 1 1.2743542668654514e-06 1000 1.2e-05 5.1999999999999997e-05 7.5999999999999991e-05
171 1 1.4064736442782983e-06 1000 1.2e-05 5.9999999999999995e-05 3.9999999999999998e-06
172 1 2.2319242385865676e-06 1000 1.2e-05 5.9999999999999995e-05 1.2e-05
173 1 1.427672670470219e-06 1000 1.2e-05 5.9999999999999995e-05 1.9999999999999998e-05
174 1 1.1045002460266481e-06 1000 1.2e-05 5.9999999999999995e-05 2.8e-05
175 1 1.077242694542605e-06 1000 1.2e-05 5.9999999999999995e-05 3.6000000000000001e-05
176 1 1.2509080760355261e-06 1000 1.2e-05 5.9999999999999995e-05 4.3999999999999999e-05
177 1 2.0154022268817723e-06 1000 1.2e-05 5.9999999999999995e-05 5.1999999999999997e-05
178 1 2.3655166527481799e-06 1000 1.2e-05 5.9999999999999995e-05 5.9999999999999995e-05
179 1 2.0535024364081969e-06 1000 1.2e-05 5.9999999999999995e-05 6.7999999999999999e-05
180 1 1.0993589752470388e-06 1000 1.2e-05 5.9999999999999995e-05 7.5999999999999991e-05
181 1 1.6726042075119823e-06 1000 1.2e-05 6.7999999999999999e-05 3.9999999999999998e-06
182 1 1.9763220789979707e-06 1000 1.2e-05 6.7999999999999999e-05 1.2e-05
183 1 1.6680800437291796e-06 1000 1.2e-05 6.7999999999999999e-05 1.9999999999999998e-05
184 1 2.3819586224188013e-06 1000 1.2e-05 6.7999999999999999e-05 2.8e-05
185 1 1.2119516235722268e-06 1000 1.2e-05 6.7999999999999999e-05 3.6000000000000001e-05
186 1 3.3389905000589425e-06 1000 1.2e-05 6.7999999999999999e-05 4.3999999999999999e-05
187 1 1.492994003691097e-06 1000 1.2e-05 6.7999999999999999e-05 5.1999999999999997e-05
188 1 1.6435229149999187e-06 1000 1.2e-05 6.7999999999999999e-05 5.9999999999999995e-05
189 1 1.5768216083495768e-06 1000 1.2e-05 6.7999999999999999e-05 6.7999999999999999e-05
190 1 1.8122495528967158e-06 1000 1.2e-05 6.7999999999999999e-05 7.5999999999999991e-05
191 1 2.3066087325065134e-06 1000 1.2e-05 7.5999999999999991e-05 3.9999999999999998e-06
192 1 1.6451472739504845e-06 1000 1.2e-05 7.5999999999999991e-05 1.2e-05
193 1 1.2431126784045216e-06 1000 1.2e-05 7.5999999999999991e-05 1.9999999999999998e-05
194 1 1.7790487140009253e-06 1000 1.2e-05 7.5999999999999991e-05 2.8e-05
195 1 2.4471892189645932e-06 1000 1.2e-05 7.5999999999999991e-05 3.6000000000000001e-05
196 1 4.2044381441558865e-06 1000 1.2e-05 7.5999999999999991e-05 4.3999999999999999e-05
197 1 3.6513178798686245e-06 1000 1.2e-05 7.5999999999999991e-05 5.1999999999999997e-05
198 1 2.5951799293119581e-06 1000 1.2e-05 7.5999999999999991e-05 5.9999999999999995e-05
199 1 2.1072475828656596e-06 1000 1.2e-05 7.5999999999999991e-05 6.7999999999999999e-05
200 1 2.0624305321065213e-06 1000 1.2e-05 7.5999999999999991e-05 7.5999999999999991e-05
201 1 3.4509621642250669e-06 1000 1.9999999999999998e-05 3.9999999999999998e-06 3.9999999999999998e-06
202 1 1.4702980445346284e-06 1000 1.9999999999999998e-05 3.9999999999999998e-06 1.2e-05
203 1 2.9326428668359448e-06 1000 1.9999999999999998e-05 3.9999999999999998e-06 1.9999999999999998e-05
204 1 1.9320485511344956e-06 1000 1.9999999999999998e-05 3.9999999999999998e-06 2.8e-05
205 1 1.7967233764584011e-06 1000 1.9999999999999998e-05 3.9999999999999998e-06 3.6000000000000001e-05
206 1 2.1666108436796251e-06 1000 1.9999999999999998e-05 3.9999999999999998e-06 4.3999999999999999e-05
207 1 2.1518972312230665e-06 1000 1.9999999999999998e-05 3.9999999999999998e-06 5.1999999999999997e-05
208 1 1.6575347781006042e-06 1000 1.9999999999999998e-05 3.9999999999999998e-06 5.9999999999999995e-05
209 1 1.20652657148246e-06 1000 1.9999999999999998e-05 3.9999999999999998e-06 6.7999999999999999e-05
210 1 1.6478314136618784e-06 1000 1.9999999999999998e-05 3.9999999999999998e-06 7.5999999999999991e-05
211 1 1.7840955496533204e-06 1000 1.9999999999999998e-05 1.2e-05 3.9999999999999998e-06
212 1 1.8299708147187029e-06 1000 1.9999999999999998e-05 1.2e-05 1.2e-05
213 1 1.9045990486166551e-06 1000 1.9999999999999998e-05 1.2e-05 1.9999999999999998e-05
214 1 1.5982109625148039e-06 1000 1.9999999999999998e-05 1.2e-05 2.8e-05
215 1 1.9418687480667967e-06 1000 1.9999999999999998e-05 1.2e-05 3.6000000000000001e-05
216 1 1.9868307702990956e-06 1000 1.9999999999999998e-05 1.2e-05 4.3999999999999999e-05
217 1 1.4571512242578263e-06 1000 1.9999999999999998e-05 1.2e-05 5.1999999999999997e-05
218 1 1.5168207160521829e-06 1000 1.9999999999999998e-05 1.2e-05 5.9999999999999995e-05
219 1 1.6879779056664571e-06 1000 1.9999999999999998e-05 1.2e-05 6.7999999999999999e-05
220 1 3.5667777339815912e-06 1000 1.9999999999999998e-05 1.2e-05 7.5999999999999991e-05
221 1 2.5086982180195909e-06 1000 1.9999999999999998e-05 1.9999999999999998e-05 3.9999999999999998e-06
222 1 1.7760882120688744e-06 1000 1.9999999999999998e-05 1.9999999999999998e-05 1.2e-05
223 1 1.687722127193175e-06 1000 1.9999999999999998e-05 1.9999999999999998e-05 1.9999999999999998e-05
224 1 2.0105961993833241e-06 1000 1.9999999999999998e-05 1.9999999999999998e-05 2.8e-05
225 1 1.5492316950722295e-06 1000 1.9999999999999998e-05 1.9999999999999998e-05 3.6000000000000001e-05
226 1 2.3010465998062325e-06 1000 1.9999999999999998e-05 1.9999999999999998e-05 4.3999999999999999e-05
227 1 1.2965575774131678e-06 1000 1.9999999999999998e-05 1.9999999999999998e-05 5.1999999999999997e-05
228 1 1.5348628083848266e-06 1000 1.9999999999999998e-05 1.9999999999999998e-05 5.9999999999999995e-05
229 1 1.1830800797403583e-06 1000 1.9999999999999998e-05 1.9999999999999998e-05 6.7999999999999999e-05
230 1 2.813030066947469e-06 1000 1.9999999999999998e-05 1.9999999999999998e-05 7.5999999999999991e-05
231 1 2.0044725056762221e-06 1000 1.9999999999999998e-05 2.8e-05 3.9999999999999998e-06
232 1 1.4041894760489606e-06 1000 1.9999999999999998e-05 2.8e-05 1.2e-05
233 1 1.5884051631616703e-06 1000 1.9999999999999998e-05 2.8e-05 1.9999999999999998e-05
234 1 2.6022680367474754e-06 1000 1.9999999999999998e-05 2.8e-05 2.8e-05
235 1 1.495373217721382e-06 1000 1.9999999999999998e-05 2.8e-05 3.6000000000000001e-05
236 1 2.885411406179934e-06 1000 1.9999999999999998e-05 2.8e-05 4.3999999999999999e-05
237 1 1.8758028557032413e-06 1000 1.9999999999999998e-05 2.8e-05 5.1999999999999997e-05
238 1 1.1224231001597131e-06 1000 1.9999999999999998e-05 2.8e-05 5.9999999999999995e-05
239 1 1.5857874525079914e-06 1000 1.9999999999999998e-05 2.8e-05 6.7999999999999999e-05
240 1 1.4958373576463105e-06 1000 1.9999999999999998e-05 2.8e-05 7.5999999999999991e-05
241 1 1.8913541743104643e-06 1000 1.9999999999999998e-05 3.6000000000000001e-05 3.9999999999999998e-06
242 1 1.6733538103490331e-06 1000 1.9999999999999998e-05 3.6000000000000001e-05 1.2e-05
243 1 3.5818587812633809e-06 1000 1.9999999999999998e-05 3.6000000000000001e-05 1.9999999999999998e-05
244 1 2.7165851711929194e-06 1000 1.9999999999999998e-05 3.6000000000000001e-05 2.8e-05
245 1 1.2008987665186573e-06 1000 1.9999999999999998e-05 3.6000000000000001e-05 3.6000000000000001e-05
246 1 3.0055369473460716e-06 1000 1.9999999999999998e-05 3.6000000000000001e-05 4.3999999999999999e-05
247 1 1.5979658477724094e-06 1000 1.9999999999999998e-05 3.6000000000000001e-05 5.1999999999999997e-05
248 1 1.7928160531516019e-06 1000 1.9999999999999998e-05 3.6000000000000001e-05 5.9999999999999995e-05
249 1 1.1937677372190887e-06 1000 1.9999999999999998e-05 3.6000000000000001e-05 6.7999999999999999e-05
250 1 1.5836733959668535e-06 1000 1.9999999999999998e-05 3.6000000000000001e-05 7.5999999999999991e-05
251 1 2.1561063395032149e-06 1000 1.9999999999999998e-05 4.3999999999999999e-05 3.9999999999999998e-06
252 1 1.7503199555728025e-06 1000 1.9999999999999998e-05 4.3999999999999999e-05 1.2e-05
253 1 3.5517468386482475e-06 1000 1.9999999999999998e-05 4.3999999999999999e-05 1.9999999999999998e-05
254 1 3.6484028100112841e-06 1000 1.9999999999999998e-05 4.3999999999999999e-05 2.8e-05
255 1 1.9719181422055576e-06 1000 1.9999999999999998e-05 4.3999999999999999e-05 3.6000000000000001e-05
256 1 1.806311332776498e-06 1000 1.9999999999999998e-05 4.3999999999999999e-05 4.3999999999999999e-05
257 1 1.3274172488349192e-06 1000 1.9999999999999998e-05 4.3999999999999999e-05 5.1999999999999997e-05
258 1 1.7874561730640403e-06 1000 1.9999999999999998e-05 4.3999999999999999e-05 5.9999999999999995e-05
259 1 1.2606257474394536e-06 1000 1.9999999999999998e-05 4.3999999999999999e-05 6.7999999999999999e-05
260 1 2.8307978497268303e-06 1000 1.9999999999999998e-05 4.3999999999999999e-05 7.5999999999999991e-05
261 1 1.2350128416969842e-06 1000 1.9999999999999998e-05 5.1999999999999997e-05 3.9999999999999998e-06
262 1 2.8455981314940265e-06 1000 1.9999999999999998e-05 5.1999999999999997e-05 1.2e-05
263 1 2.9582083279005308e-06 1000 1.9999999999999998e-05 5.1999999999999997e-05 1.9999999999999998e-05
264 1 2.2988973327368342e-06 1000 1.9999999999999998e-05 5.1999999999999997e-05 2.8e-05
265 1 1.5384551064103779e-06 1000 1.9999999999999998e-05 5.1999999999999997e-05 3.6000000000000001e-05
266 1 1.710354858441382e-06 1000 1.9999999999999998e-05 5.1999999999999997e-05 4.3999999999999999e-05
267 1 2.415977107277255e-06 1000 1.9999999999999998e-05 5.1999999999999997e-05 5.1999999999999997e-05
268 1 2.1286365571297097e-06 1000 1.9999999999999998e-05 5.1999999999999997e-05 5.9999999999999995e-05
269 1 1.8390699868835772e-06 1000 1.9999999999999998e-05 5.1999999999999997e-05 6.7999999999999999e-05
270 1 1.2923544524294271e-06 1000 1.9999999999999998e-05 5.1999999999999997e-05 7.5999999999999991e-05
271 1 3.5029083678806918e-06 1000 1.9999999999999998e-05 5.9999999999999995e-05 3.9999999999999998e-06
272 1 1.8097697306578682e-06 1000 1.9999999999999998e-05 5.9999999999999995e-05 1.2e-05
273 1 1.7983414320528364e-06 1000 1.9999999999999998e-05 5.9999999999999995e-05 1.9999999999999998e-05
274 1 1.0760922098487088e-06 1000 1.9999999999999998e-05 5.9999999999999995e-05 2.8e-05
275 1 2.7675872001248418e-06 1000 1.9999999999999998e-05 5.9999999999999995e-05 3.6000000000000001e-05
276 1 2.4026268648613238e-06 1000 1.9999999999999998e-05 5.9999999999999995e-05 4.3999999999999999e-05
277 1 1.2163947896007058e-06 1000 1.9999999999999998e-05 5.9999999999999995e-05 5.1999999999999997e-05
278 1 2.9994777869261957e-06 1000 1.9999999999999998e-05 5.9999999999999995e-05 5.9999999999999995e-05
279 1 1.7387469663276693e-06 1000 1.9999999999999998e-05 5.9999999999999995e-05 6.7999999999999999e-05
280 1 3.5050932377197206e-06 1000 1.9999999999999998e-05 5.9999999999999995e-05 7.5999999999999991e-05
281 1 1.6702632485888376e-06 1000 1.9999999999999998e-05 6.7999999999999999e-05 3.9999999999999998e-06
282 1 2.8372702189628762e-06 1000 1.9999999999999998e-05 6.7999999999999999e-05 1.2e-05
283 1 1.9511564582579443e-06 1000 1.9999999999999998e-05 6.7999999999999999e-05 1.9999999999999998e-05
284 1 1.7417351611671814e-06 1000 1.9999999999999998e-05 6.7999999999999999e-05 2.8e-05
285 1 2.1589969799693874e-06 1000 1.9999999999999998e-05 6.7999999999999999e-05 3.6000000000000001e-05
286 1 2.1291339264771804e-06 1000 1.9999999999999998e-05 6.7999999999999999e-05 4.3999999999999999e-05
287 1 1.1423858094005701e-06 1000 1.9999999999999998e-05 6.7999999999999999e-05 5.1999999999999997e-05
288 1 1.4231578480247388e-06 1000 1.9999999999999998e-05 6.7999999999999999e-05 5.9999999999999995e-05
289 1 3.0976132416718151e-06 1000 1.9999999999999998e-05 6.7999999999999999e-05 6.7999999999999999e-05
290 1 2.7876618901297469e-06 1000 1.9999999999999998e-05 6.7999999999999999e-05 7.5999999999999991e-05
291 1 2.9943959736144116e-06 1000 1.9999999999999998e-05 7.5999999999999991e-05 3.9999999999999998e-06
292 1 1.5004784701487954e-06 1000 1.9999999999999998e-05 7.5999999999999991e-05 1.2e-05
293 1 1.6749649040385074e-06 1000 1.9999999999999998e-05 7.5999999999999991e-05 1.9999999999999998e-05
294 1 2.3223866570054475e-06 1000 1.9999999999999998e-05 7.5999999999999991e-05 2.8e-05
295 1 1.6009415695238881e-06 1000 1.9999999999999998e-05 7.5999999999999991e-05 3.6000000000000001e-05
296 1 1.7238956598615955e-06 1000 1.9999999999999998e-05 7.5999999999999991e-05 4.3999999999999999e-05
297 1 1.8861015028182594e-06 1000 1.9999999999999998e-05 7.5999999999999991e-05 5.1999999999999997e-05
298 1 2.6901355189448138e-06 1000 1.9999999999999998e-05 7.5999999999999991e-05 5.9999999999999995e-05
299 1 2.3478340584264547e-06 1000 1.9999999999999998e-05 7.5999999999999991e-05 6.7999999999999999e-05
300 1 1.979106187653554e-06 1000 1.9999999999999998e-05 7.5999999999999991e-05 7.5999999999999991e-05
301 1 1.4796173838359229e-06 1000 2.8e-05 3.9999999999999998e-06 3.9999999999999998e-06
302 1 2.0514388702064153e-06 1000 2.8e-05 3.9999999999999998e-06 1.2e-05
303 1 1.9124887671764013e-06 1000 2.8e-05 3.9999999999999998e-06 1.9999999999999998e-05
304 1 1.275479334227171e-06 1000 2.8e-05 3.9999999999999998e-06 2.8e-05
305 1 2.1571233793756496e-06 1000 2.8e-05 3.9999999999999998e-06 3.6000000000000001e-05
306 1 2.9272323012508097e-06 1000 2.8e-05 3.9999999999999998e-06 4.3999999999999999e-05
307 1 2.1451718394871789e-06 1000 2.8e-05 3.9999999999999998e-06 5.1999999999999997e-05
308 1 3.0164211139406609e-06 1000 2.8e-05 3.9999999999999998e-06 5.9999999999999995e-05
309 1 1.6915858147363145e-06 1000 2.8e-05 3.9999999999999998e-06 6.7999999999999999e-05
310 1 1.6821273474660752e-06 1000 2.8e-05 3.9999999999999998e-06 7.5999999999999991e-05
311 1 1.1143820450465202e-06 1000 2.8e-05 1.2e-05 3.9999999999999998e-06
312 1 1.6543451311432412e-06 1000 2.8e-05 1.2e-05 1.2e-05
313 1 1.5684270795521113e-06 1000 2.8e-05 1.2e-05 1.9999999999999998e-05
314 1 1.2532394964787414e-06 1000 2.8e-05 1.2e-05 2.8e-05
315 1 3.4175788206951586e-06 1000 2.8e-05 1.2e-05 3.6000000000000001e-05
316 1 1.5334933181655387e-06 1000 2.8e-05 1.2e-05 4.3999999999999999e-05
317 1 1.5762846926829343e-06 1000 2.8e-05 1.2e-05 5.1999999999999997e-05
318 1 2.7959845441443207e-06 1000 2.8e-05 1.2e-05 5.9999999999999995e-05
319 1 1.9472859132873703e-06 1000 2.8e-05 1.2e-05 6.7999999999999999e-05
320 1 2.4117881104588354e-06 1000 2.8e-05 1.2e-05 7.5999999999999991e-05
321 1 1.160491491419505e-06 1000 2.8e-05 1.9999999999999998e-05 3.9999999999999998e-06
322 1 1.9266666080101552e-06 1000 2.8e-05 1.9999999999999998e-05 1.2e-05
323 1 2.9654750520843496e-06 1000 2.8e-05 1.9999999999999998e-05 1.9999999999999998e-05
324 1 1.8054439079037937e-06 1000 2.8e-05 1.9999999999999998e-05 2.8e-05
325 1 1.8361169020439762e-06 1000 2.8e-05 1.9999999999999998e-05 3.6000000000000001e-05
326 1 1.8959088194050789e-06 1000 2.8e-05 1.9999999999999998e-05 4.3999999999999999e-05
327 1 2.854189723290084e-06 1000 2.8e-05 1.9999999999999998e-05 5.1999999999999997e-05
328 1 1.4184697366394427e-06 1000 2.8e-05 1.9999999999999998e-05 5.9999999999999995e-05
329 1 1.1589510605881024e-06 1000 2.8e-05 1.9999999999999998e-05 6.7999999999999999e-05
330 1 1.8760864659936739e-06 1000 2.8e-05 1.9999999999999998e-05 7.5999999999999991e-05
331 1 2.6559472296112371e-06 1000 2.8e-05 2.8e-05 3.9999999999999998e-06
332 1 2.456525260802143e-06 1000 2.8e-05 2.8e-05 1.2e-05
333 1 2.9136559476848275e-06 1000 2.8e-05 2.8e-05 1.9999999999999998e-05
334 1 2.1836193376953165e-06 1000 2.8e-05 2.8e-05 2.8e-05
335 1 1.9843910569447011e-06 1000 2.8e-05 2.8e-05 3.6000000000000001e-05
336 1 2.3371409084233939e-06 1000 2.8e-05 2.8e-05 4.3999999999999999e-05
337 1 2.0346760870891358e-06 1000 2.8e-05 2.8e-05 5.1999999999999997e-05
338 1 2.5610154473860505e-06 1000 2.8e-05 2.8e-05 5.9999999999999995e-05
339 1 2.1666129114218657e-06 1000 2.8e-05 2.8e-05 6.7999999999999999e-05
340 1 2.5989447394373511e-06 1000 2.8e-05 2.8e-05 7.5999999999999991e-05
341 1 1.5223148184540431e-06 1000 2.8e-05 3.6000000000000001e-05 3.9999999999999998e-06
342 1 1.1502616884877806e-06 1000 2.8e-05 3.6000000000000001e-05 1.2e-05
343 1 1.9759538653835438e-06 1000 2.8e-05 3.6000000000000001e-05 1.9999999999999998e-05
344 1 1.5048819231868721e-06 1000 2.8e-05 3.6000000000000001e-05 2.8e-05
345 1 1.3931000540781664e-06 1000 2.8e-05 3.6000000000000001e-05 3.6000000000000001e-05
346 1 2.3850504359357009e-06 1000 2.8e-05 3.6000000000000001e-05 4.3999999999999999e-05
347 1 2.3572050914308814e-06 1000 2.8e-05 3.6000000000000001e-05 5.1999999999999997e-05
348 1 1.6738802619324781e-06 1000 2.8e-05 3.6000000000000001e-05 5.9999999999999995e-05
349 1 3.3969477020149904e-06 1000 2.8e-05 3.6000000000000001e-05 6.7999999999999999e-05
350 1 1.9532812938722849e-06 1000 2.8e-05 3.6000000000000001e-05 7.5999999999999991e-05
351 1 2.0048828202909867e-06 1000 2.8e-05 4.3999999999999999e-05 3.9999999999999998e-06
352 1 1.9268744486798953e-06 1000 2.8e-05 4.3999999999999999e-05 1.2e-05
353 1 1.51677370474824e-06 1000 2.8e-05 4.3999999999999999e-05 1.9999999999999998e-05
354 1 2.2762562427769749e-06 1000 2.8e-05 4.3999999999999999e-05 2.8e-05
355 1 1.7444610015106798e-06 1000 2.8e-05 4.3999999999999999e-05 3.6000000000000001e-05
356 1 2.7585271989088364e-06 1000 2.8e-05 4.3999999999999999e-05 4.3999999999999999e-05
357 1 2.236722770822698e-06 1000 2.8e-05 4.3999999999999999e-05 5.1999999999999997e-05
358 1 2.8804099422358706e-06 1000 2.8e-05 4.3999999999999999e-05 5.9999999999999995e-05
359 1 1.9907472733530621e-06 1000 2.8e-05 4.3999999999999999e-05 6.7999999999999999e-05
360 1 2.0097540484232733e-06 1000 2.8e-05 4.3999999999999999e-05 7.5999999999999991e-05
361 1 1.5637330642722114e-06 1000 2.8e-05 5.1999999999999997e-05 3.9999999999999998e-06
362 1 1.8243255053269212e-06 1000 2.8e-05 5.1999999999999997e-05 1.2e-05
363 1 2.7253682507706975e-06 1000 2.8e-05 5.1999999999999997e-05 1.9999999999999998e-05
364 1 2.7133128637353657e-06 1000 2.8e-05 5.1999999999999997e-05 2.8e-05
365 1 1.644677784837709e-06 1000 2.8e-05 5.1999999999999997e-05 3.6000000000000001e-05
366 1 1.2054372067783045e-06 1000 2.8e-05 5.1999999999999997e-05 4.3999999999999999e-05
367 1 1.654338071419165e-06 1000 2.8e-05 5.1999999999999997e-05 5.1999999999999997e-05
368 1 1.587610617711302e-06 1000 2.8e-05 5.1999999999999997e-05 5.9999999999999995e-05
369 1 1.3852464983780187e-06 1000 2.8e-05 5.1999999999999997e-05 6.7999999999999999e-05
370 1 1.3766740898478482e-06 1000 2.8e-05 5.1999999999999997e-05 7.5999999999999991e-05
371 1 1.6668538472058189e-06 1000 2.8e-05 5.9999999999999995e-05 3.9999999999999998e-06
372 1 1.6802095535115321e-06 1000 2.8e-05 5.9999999999999995e-05 1.2e-05
373 1 2.0213758884911385e-06 1000 2.8e-05 5.9999999999999995e-05 1.9999999999999998e-05
374 1 2.5784423389582333e-06 1000 2.8e-05 5.9999999999999995e-05 2.8e-05
375 1 1.7076912502719691e-06 1000 2.8e-05 5.9999999999999995e-05 3.6000000000000001e-05
376 1 3.6256844482539538e-06 1000 2.8e-05 5.9999999999999995e-05 4.3999999999999999e-05
377 1 1.5918490448678428e-06 1000 2.8e-05 5.9999999999999995e-05 5.1999999999999997e-05
378 1 2.6379678408455941e-06 1000 2.8e-05 5.9999999999999995e-05 5.9999999999999995e-05
379 1 3.3183331370203634e-06 1000 2.8e-05 5.9999999999999995e-05 6.7999999999999999e-05
380 1 1.4538046641675382e-06 1000 2.8e-05 5.9999999999999995e-05 7.5999999999999991e-05
381 1 2.0814200842581935e-06 1000 2.8e-05 6.7999999999999999e-05 3.9999999999999998e-06
382 1 3.9225944399323641e-06 1000 2.8e-05 6.7999999999999999e-05 1.2e-05
383 1 1.6088193619828566e-06 1000 2.8e-05 6.7999999999999999e-05 1.9999999999999998e-05
384 1 2.1070094811054902e-06 1000 2.8e-05 6.7999999999999999e-05 2.8e-05
385 1 1.6475912898908834e-06 1000 2.8e-05 6.7999999999999999e-05 3.6000000000000001e-05
386 1 1.9651678416122807e-06 1000 2.8e-05 6.7999999999999999e-05 4.3999999999999999e-05
387 1 1.7752453821234521e-06 1000 2.8e-05 6.7999999999999999e-05 5.1999999999999997e-05
388 1 2.7882754318018204e-06 1000 2.8e-05 6.7999999999999999e-05 5.9999999999999995e-05
389 1 1.1618511931630752e-06 1000 2.8e-05 6.7999999999999999e-05 6.7999999999999999e-05
390 1 2.2069104416671622e-06 1000 2.8e-05 6.7999999999999999e-05 7.5999999999999991e-05
391 1 1.7663897982149969e-06 1000 2.8e-05 7.5999999999999991e-05 3.9999999999999998e-06
392 1 1.4608488701766395e-06 1000 2.8e-05 7.5999999999999991e-05 1.2e-05
393 1 3.494501768998968e-06 1000 2.8e-05 7.5999999999999991e-05 1.9999999999999998e-05
394 1 1.9873330925978166e-06 1000 2.8e-05 7.5999999999999991e-05 2.8e-05
395 1 1.6980285708551807e-06 1000 2.8e-05 7.5999999999999991e-05 3.6000000000000001e-05
396 1 1.6969201145790401e-06 1000 2.8e-05 7.5999999999999991e-05 4.3999999999999999e-05
397 1 1.472300611894048e-06 1000 2.8e-05 7.5999999999999991e-05 5.1999999999999997e-05
398 1 2.2731703361381533e-06 1000 2.8e-05 7.5999999999999991e-05 5.9999999999999995e-05
399 1 1.269177873973363e-06 1000 2.8e-05 7.5999999999999991e-05 6.7999999999999999e-05
400 1 1.4510245026988214e-06 1000 2.8e-05 7.5999999999999991e-05 7.5999999999999991e-05
401 1 1.9165492647599243e-06 1000 3.6000000000000001e-05 3.9999999999999998e-06 3.9999999999999998e-06
402 1 1.4002312679130854e-06 1000 3.6000000000000001e-05 3.9999999999999998e-06 1.2e-05
403 1 1.9786354175771264e-06 1000 3.6000000000000001e-05 3.9999999999999998e-06 1.9999999999999998e-05
404 1 3.5113655220316998e-06 1000 3.6000000000000001e-05 3.9999999999999998e-06 2.8e-05
405 1 1.4471001168238487e-06 1000 3.6000000000000001e-05 3.9999999999999998e-06 3.6000000000000001e-05
406 1 2.6581487113372269e-06 1000 3.6000000000000001e-05 3.9999999999999998e-06 4.3999999999999999e-05
407 1 1.4109341401476269e-06 1000 3.6000000000000001e-05 3.9999999999999998e-06 5.1999999999999997e-05
408 1 2.3220141119390245e-06 1000 3.6000000000000001e-05 3.9999999999999998e-06 5.9999999999999995e-05
409 1 1.8390407843610982e-06 1000 3.6000000000000001e-05 3.9999999999999998e-06 6.7999999999999999e-05
410 1 2.608383911608376e-06 1000 3.6000000000000001e-05 3.9999999999999998e-06 7.5999999999999991e-05
411 1 1.2913509171747003e-06 1000 3.6000000000000001e-05 1.2e-05 3.9999999999999998e-06
412 1 1.8821525391489493e-06 1000 3.6000000000000001e-05 1.2e-05 1.2e-05
413 1 3.4721965717055597e-06 1000 3.6000000000000001e-05 1.2e-05 1.9999999999999998e-05
414 1 1.3726931670526745e-06 1000 3.6000000000000001e-05 1.2e-05 2.8e-05
415 1 2.0007340288666574e-06 1000 3.6000000000000001e-05 1.2e-05 3.6000000000000001e-05
416 1 1.1822168241842342e-06 1000 3.6000000000000001e-05 1.2e-05 4.3999999999999999e-05
417 1 1.8764843737191353e-06 1000 3.6000000000000001e-05 1.2e-05 5.1999999999999997e-05
418 1 1.6318313444676805e-06 1000 3.6000000000000001e-05 1.2e-05 5.9999999999999995e-05
419 1 2.7666058765690076e-06 1000 3.6000000000000001e-05 1.2e-05 6.7999999999999999e-05
420 1 1.7464762537694986e-06 1000 3.6000000000000001e-05 1.2e-05 7.5999999999999991e-05
421 1 1.8919082175398911e-06 1000 3.6000000000000001e-05 1.9999999999999998e-05 3.9999999999999998e-06
422 1 1.6200953291126804e-06 1000 3.6000000000000001e-05 1.9999999999999998e-05 1.2e-05
423 1 1.2766642554730686e-06 1000 3.6000000000000001e-05 1.9999999999999998e-05 1.9999999999999998e-05
424 1 2.2093382996752368e-06 1000 3.6000000000000001e-05 1.9999999999999998e-05 2.8e-05
425 1 1.3654347152875568e-06 1000 3.6000000000000001e-05 1.9999999999999998e-05 3.6000000000000001e-05
426 1 2.2525566851797664e-06 1000 3.6000000000000001e-05 1.9999999999999998e-05 4.3999999999999999e-05
427 1 2.7945065357302675e-06 1000 3.6000000000000001e-05 1.9999999999999998e-05 5.1999999999999997e-05
428 1 1.4324846363928183e-06 1000 3.6000000000000001e-05 1.9999999999999998e-05 5.9999999999999995e-05
429 1 1.6526790969722759e-06 1000 3.6000000000000001e-05 1.9999999999999998e-05 6.7999999999999999e-05
430 1 1.8208315557990792e-06 1000 3.6000000000000001e-05 1.9999999999999998e-05 7.5999999999999991e-05
431 1 2.159864027260925e-06 1000 3.6000000000000001e-05 2.8e-05 3.9999999999999998e-06
432 1 1.4519646823523189e-06 1000 3.6000000000000001e-05 2.8e-05 1.2e-05
433 1 1.9680875086590639e-06 1000 3.6000000000000001e-05 2.8e-05 1.9999999999999998e-05
434 1 2.1933903046410113e-06 1000 3.6000000000000001e-05 2.8e-05 2.8e-05
435 1 1.7550078773160926e-06 1000 3.6000000000000001e-05 2.8e-05 3.6000000000000001e-05
436 1 1.4084472688127473e-06 1000 3.6000000000000001e-05 2.8e-05 4.3999999999999999e-05
437 1 1.4753007809445368e-06 1000 3.6000000000000001e-05 2.8e-05 5.1999999999999997e-05
438 1 1.3648743036391432e-06 1000 3.6000000000000001e-05 2.8e-05 5.9999999999999995e-05
439 1 2.3193430072742191e-06 1000 3.6000000000000001e-05 2.8e-05 6.7999999999999999e-05
440 1 1.4756292046306308e-06 1000 3.6000000000000001e-05 2.8e-05 7.5999999999999991e-05
441 1 2.42586467786996e-06 1000 3.6000000000000001e-05 3.6000000000000001e-05 3.9999999999999998e-06
442 1 3.722063571763532e-06 1000 3.6000000000000001e-05 3.6000000000000001e-05 1.2e-05
443 1 1.8431328914326998e-06 1000 3.6000000000000001e-05 3.6000000000000001e-05 1.9999999999999998e-05
444 1 2.0050019970024939e-06 1000 3.6000000000000001e-05 3.6000000000000001e-05 2.8e-05
445 1 1.3938308531873638e-06 1000 3.6000000000000001e-05 3.6000000000000001e-05 3.6000000000000001e-05
446 1 3.0305879688840273e-06 1000 3.6000000000000001e-05 3.6000000000000001e-05 4.3999999999999999e-05
447 1 1.3631093378046557e-06 1000 3.6000000000000001e-05 3.6000000000000001e-05 5.1999999999999997e-05
448 1 1.3257465861984408e-06 1000 3.6000000000000001e-05 3.6000000000000001e-05 5.9999999999999995e-05
449 1 2.203412620604006e-06 1000 3.6000000000000001e-05 3.6000000000000001e-05 6.7999999999999999e-05
450 1 1.4373315642819918e-06 1000 3.6000000000000001e-05 3.6000000000000001e-05 7.5999999999999991e-05
451 1 2.1731329682966891e-06 1000 3.6000000000000001e-05 4.3999999999999999e-05 3.9999999999999998e-06
452 1 1.2517995626996529e-06 1000 3.6000000000000001e-05 4.3999999999999999e-05 1.2e-05
453 1 1.3869633161087526e-06 1000 3.6000000000000001e-05 4.3999999999999999e-05 1.9999999999999998e-05
454 1 1.5338775700292927e-06 1000 3.6000000000000001e-05 4.3999999999999999e-05 2.8e-05
455 1 1.4816059966199564e-06 1000 3.6000000000000001e-05 4.3999999999999999e-05 3.6000000000000001e-05
456 1 1.3608542882192087e-06 1000 3.6000000000000001e-05 4.3999999999999999e-05 4.3999999999999999e-05
457 1 1.7297808734530713e-06 1000 3.6000000000000001e-05 4.3999999999999999e-05 5.1999999999999997e-05
458 1 1.6109861341458121e-06 1000 3.6000000000000001e-05 4.3999999999999999e-05 5.9999999999999995e-05
459 1 2.0713039926790253e-06 1000 3.6000000000000001e-05 4.3999999999999999e-05 6.7999999999999999e-05
460 1 2.0327504169289778e-06 1000 3.6000000000000001e-05 4.3999999999999999e-05 7.5999999999999991e-05
461 1 3.7242043946307392e-06 1000 3.6000000000000001e-05 5.1999999999999997e-05 3.9999999999999998e-06
462 1 1.995846852420394e-06 1000 3.6000000000000001e-05 5.1999999999999997e-05 1.2e-05
463 1 2.261624239143357e-06 1000 3.6000000000000001e-05 5.1999999999999997e-05 1.9999999999999998e-05
464 1 2.6420791897780826e-06 1000 3.6000000000000001e-05 5.1999999999999997e-05 2.8e-05
465 1 2.2481277033014018e-06 1000 3.6000000000000001e-05 5.1999999999999997e-05 3.6000000000000001e-05
466 1 2.2380453426763223e-06 1000 3.6000000000000001e-05 5.1999999999999997e-05 4.3999999999999999e-05
467 1 2.7237934500741978e-06 1000 3.6000000000000001e-05 5.1999999999999997e-05 5.1999999999999997e-05
468 1 1.5273979132003347e-06 1000 3.6000000000000001e-05 5.1999999999999997e-05 5.9999999999999995e-05
469 1 2.518742044969523e-06 1000 3.6000000000000001e-05 5.1999999999999997e-05 6.7999999999999999e-05
470 1 2.3016512313001789e-06 1000 3.6000000000000001e-05 5.1999999999999997e-05 7.5999999999999991e-05
471 1 3.3811894002453173e-06 1000 3.6000000000000001e-05 5.9999999999999995e-05 3.9999999999999998e-06
472 1 1.2558753538095485e-06 1000 3.6000000000000001e-05 5.9999999999999995e-05 1.2e-05
473 1 1.2721957238928326e-06 1000 3.6000000000000001e-05 5.9999999999999995e-05 1.9999999999999998e-05
474 1 2.0629255242682397e-06 1000 3.6000000000000001e-05 5.9999999999999995e-05 2.8e-05
475 1 2.9752215223486433e-06 1000 3.6000000000000001e-05 5.9999999999999995e-05 3.6000000000000001e-05
476 1 2.1160039975237803e-06 1000 3.6000000000000001e-05 5.9999999999999995e-05 4.3999999999999999e-05
477 1 2.1766602353629406e-06 1000 3.6000000000000001e-05 5.9999999999999995e-05 5.1999999999999997e-05
478 1 2.05959118463094e-06 1000 3.6000000000000001e-05 5.9999999999999995e-05 5.9999999999999995e-05
479 1 2.4339811924448633e-06 1000 3.6000000000000001e-05 5.9999999999999995e-05 6.7999999999999999e-05
480 1 1.8341313879319708e-06 1000 3.6000000000000001e-05 5.9999999999999995e-05 7.5999999999999991e-05
481 1 2.5015725374903119e-06 1000 3.6000000000000001e-05 6.7999999999999999e-05 3.9999999999999998e-06
482 1 2.09918398712934e-06 1000 3.6000000000000001e-05 6.7999999999999999e-05 1.2e-05
483 1 2.7468401182382697e-06 1000 3.6000000000000001e-05 6.7999999999999999e-05 1.9999999999999998e-05
484 1 2.4379784428118537e-06 1000 3.6000000000000001e-05 6.7999999999999999e-05 2.8e-05
485 1 1.212518258051583e-06 1000 3.6000000000000001e-05 6.7999999999999999e-05 3.6000000000000001e-05
486 1 1.2982565301491176e-06 1000 3.6000000000000001e-05 6.7999999999999999e-05 4.3999999999999999e-05
487 1 1.8116513326840312e-06 1000 3.6000000000000001e-05 6.7999999999999999e-05 5.1999999999999997e-05
488 1 1.8164338296744124e-06 1000 3.6000000000000001e-05 6.7999999999999999e-05 5.9999999999999995e-05
489 1 1.8118396145259641e-06 1000 3.6000000000000001e-05 6.7999999999999999e-05 6.7999999999999999e-05
490 1 1.462869662960993e-06 1000 3.6000000000000001e-05 6.7999999999999999e-05 7.5999999999999991e-05
491 1 1.4937186615902619e-06 1000 3.6000000000000001e-05 7.5999999999999991e-05 3.9999999999999998e-06
492 1 1.9259756808840141e-06 1000 3.6000000000000001e-05 7.5999999999999991e-05 1.2e-05
493 1 2.6018155725570499e-06 1000 3.6000000000000001e-05 7.5999999999999991e-05 1.9999999999999998e-05
494 1 1.4337904744833408e-06 1000 3.6000000000000001e-05 7.5999999999999991e-05 2.8e-05
495 1 1.779708453212817e-06 1000 3.6000000000000001e-05 7.5999999999999991e-05 3.6000000000000001e-05
496 1 1.569328025402392e-06 1000 3.6000000000000001e-05 7.5999999999999991e-05 4.3999999999999999e-05
497 1 1.6640466750234189e-06 1000 3.6000000000000001e-05 7.5999999999999991e-05 5.1999999999999997e-05
498 1 1.9852234518289599e-06 1000 3.6000000000000001e-05 7.5999999999999991e-05 5.9999999999999995e-05
499 1 2.6650462256434204e-06 1000 3.6000000000000001e-05 7.5999999999999991e-05 6.7999999999999999e-05
500 1 1.0832630777996705e-06 1000 3.6000000000000001e-05 7.5999999999999991e-05 7.5999999999999991e-05
501 1 2.2058291584680846e-06 1000 4.3999999999999999e-05 3.9999999999999998e-06 3.9999999999999998e-06
502 1 1.7913474268120877e-06 1000 4.3999999999999999e-05 3.9999999999999998e-06 1.2e-05
503 1 3.0403775172228885e-06 1000 4.3999999999999999e-05 3.9999999999999998e-06 1.9999999999999998e-05
504 1 1.6939631352190561e-06 1000 4.3999999999999999e-05 3.9999999999999998e-06 2.8e-05
505 1 3.0309850933168444e-06 1000 4.3999999999999999e-05 3.9999999999999998e-06 3.6000000000000001e-05
506 1 1.6037242478832565e-06 1000 4.3999999999999999e-05 3.9999999999999998e-06 4.3999999999999999e-05
507 1 1.2213458283422984e-06 1000 4.3999999999999999e-05 3.9999999999999998e-06 5.1999999999999997e-05
508 1 1.3684363880780896e-06 1000 4.3999999999999999e-05 3.9999999999999998e-06 5.9999999999999995e-05
509 1 1.263170042506282e-06 1000 4.3999999999999999e-05 3.9999999999999998e-06 6.7999999999999999e-05
510 1 2.2719471464247543e-06 1000 4.3999999999999999e-05 3.9999999999999998e-06 7.5999999999999991e-05
511 1 1.7262516466182384e-06 1000 4.3999999999999999e-05 1.2e-05 3.9999999999999998e-06
512 1 2.5699725609632225e-06 1000 4.3999999999999999e-05 1.2e-05 1.2e-05
513 1 2.4068972884320348e-06 1000 4.3999999999999999e-05 1.2e-05 1.9999999999999998e-05
514 1 1.5615856547138593e-06 1000 4.3999999999999999e-05 1.2e-05 2.8e-05
515 1 2.8704431820137429e-06 1000 4.3999999999999999e-05 1.2e-05 3.6000000000000001e-05
516 1 1.1304497301650403e-06 1000 4.3999999999999999e-05 1.2e-05 4.3999999999999999e-05
517 1 1.5569148382623294e-06 1000 4.3999999999999999e-05 1.2e-05 5.1999999999999997e-05
518 1 1.1063859353759232e-06 1000 4.3999999999999999e-05 1.2e-05 5.9999999999999995e-05
519 1 2.5465509767677074e-06 1000 4.3999999999999999e-05 1.2e-05 6.7999999999999999e-05
520 1 1.187883342594406e-06 1000 4.3999999999999999e-05 1.2e-05 7.5999999999999991e-05
521 1 2.4510156666321134e-06 1000 4.3999999999999999e-05 1.9999999999999998e-05 3.9999999999999998e-06
522 1 1.6852118681713834e-06 1000 4.3999999999999999e-05 1.9999999999999998e-05 1.2e-05
523 1 2.0304449105209779e-06 1000 4.3999999999999999e-05 1.9999999999999998e-05 1.9999999999999998e-05
524 1 1.5409649573355426e-06 1000 4.3999999999999999e-05 1.9999999999999998e-05 2.8e-05
525 1 1.3395589698858355e-06 1000 4.3999999999999999e-05 1.9999999999999998e-05 3.6000000000000001e-05
526 1 4.8174526173951083e-06 1000 4.3999999999999999e-05 1.9999999999999998e-05 4.3999999999999999e-05
527 1 2.292213667288576e-06 1000 4.3999999999999999e-05 1.9999999999999998e-05 5.1999999999999997e-05
528 1 2.6474718475184046e-06 1000 4.3999999999999999e-05 1.9999999999999998e-05 5.9999999999999995e-05
529 1 1.0870960575060032e-06 1000 4.3999999999999999e-05 1.9999999999999998e-05 6.7999999999999999e-05
530 1 1.6237975808926558e-06 1000 4.3999999999999999e-05 1.9999999999999998e-05 7.5999999999999991e-05
531 1 3.1387610869997432e-06 1000 4.3999999999999999e-05 2.8e-05 3.9999999999999998e-06
532 1 1.6040617944550599e-06 1000 4.3999999999999999e-05 2.8e-05 1.2e-05
533 1 1.2988295575801415e-06 1000 4.3999999999999999e-05 2.8e-05 1.9999999999999998e-05
534 1 3.6181864602643839e-06 1000 4.3999999999999999e-05 2.8e-05 2.8e-05
535 1 1.3223831930979307e-06 1000 4.3999999999999999e-05 2.8e-05 3.6000000000000001e-05
536 1 1.3553695826721121e-06 1000 4.3999999999999999e-05 2.8e-05 4.3999999999999999e-05
537 1 1.5626343894180597e-06 1000 4.3999999999999999e-05 2.8e-05 5.1999999999999997e-05
538 1 2.1677136815380942e-06 1000 4.3999999999999999e-05 2.8e-05 5.9999999999999995e-05
539 1 1.4341530241767387e-06 1000 4.3999999999999999e-05 2.8e-05 6.7999999999999999e-05
540 1 2.3133541789471232e-06 1000 4.3999999999999999e-05 2.8e-05 7.5999999999999991e-05
541 1 3.7113827013587811e-06 1000 4.3999999999999999e-05 3.6000000000000001e-05 3.9999999999999998e-06
542 1 3.8831297867271206e-06 1000 4.3999999999999999e-05 3.6000000000000001e-05 1.2e-05
543 1 1.9198559902587061e-06 1000 4.3999999999999999e-05 3.6000000000000001e-05 1.9999999999999998e-05
544 1 2.7000429597595968e-06 1000 4.3999999999999999e-05 3.6000000000000001e-05 2.8e-05
545 1 1.7943966091865281e-06 1000 4.3999999999999999e-05 3.6000000000000001e-05 3.6000000000000001e-05
546 1 1.4879158296309996e-06 1000 4.3999999999999999e-05 3.6000000000000001e-05 4.3999999999999999e-05
547 1 1.6360735058135241e-06 1000 4.3999999999999999e-05 3.6000000000000001e-05 5.1999999999999997e-05
548 1 1.5701640055995761e-06 1000 4.3999999999999999e-05 3.6000000000000001e-05 5.9999999999999995e-05
549 1 2.2814261846700856e-06 1000 4.3999999999999999e-05 3.6000000000000001e-05 6.7999999999999999e-05
550 1 1.4962578943424106e-06 1000 4.3999999999999999e-05 3.6000000000000001e-05 7.5999999999999991e-05
551 1 3.1521835461846743e-06 1000 4.3999999999999999e-05 4.3999999999999999e-05 3.9999999999999998e-06
552 1 1.3428773933732486e-06 1000 4.3999999999999999e-05 4.3999999999999999e-05 1.2e-05
553 1 1.7975286813620633e-06 1000 4.3999999999999999e-05 4.3999999999999999e-05 1.9999999999999998e-05
554 1 1.2252795062423386e-06 1000 4.3999999999999999e-05 4.3999999999999999e-05 2.8e-05
555 1 3.0106647325227618e-06 1000 4.3999999999999999e-05 4.3999999999999999e-05 3.6000000000000001e-05
556 1 1.9763414878175417e-06 1000 4.3999999999999999e-05 4.3999999999999999e-05 4.3999999999999999e-05
557 1 1.4290245302335344e-06 1000 4.3999999999999999e-05 4.3999999999999999e-05 5.1999999999999997e-05
558 1 3.0619653644024925e-06 1000 4.3999999999999999e-05 4.3999999999999999e-05 5.9999999999999995e-05
559 1 2.9138002649729673e-06 1000 4.3999999999999999e-05 4.3999999999999999e-05 6.7999999999999999e-05
560 1 2.2821052814831617e-06 1000 4.3999999999999999e-05 4.3999999999999999e-05 7.5999999999999991e-05
561 1 1.9739305607779766e-06 1000 4.3999999999999999e-05 5.1999999999999997e-05 3.9999999999999998e-06
562 1 2.2767243711179563e-06 1000 4.3999999999999999e-05 5.1999999999999997e-05 1.2e-05
563 1 1.9738288116969083e-06 1000 4.3999999999999999e-05 5.1999999999999997e-05 1.9999999999999998e-05
564 1 1.3494686718176108e-06 1000 4.3999999999999999e-05 5.1999999999999997e-05 2.8e-05
565 1 2.2466565968038983e-06 1000 4.3999999999999999e-05 5.1999999999999997e-05 3.6000000000000001e-05
566 1 2.2544631723507034e-06 1000 4.3999999999999999e-05 5.1999999999999997e-05 4.3999999999999999e-05
567 1 1.96049083730161e-06 1000 4.3999999999999999e-05 5.1999999999999997e-05 5.1999999999999997e-05
568 1 1.4861561400551147e-06 1000 4.3999999999999999e-05 5.1999999999999997e-05 5.9999999999999995e-05
569 1 2.4732241085964942e-06 1000 4.3999999999999999e-05 5.1999999999999997e-05 6.7999999999999999e-05
570 1 1.813618757699479e-06 1000 4.3999999999999999e-05 5.1999999999999997e-05 7.5999999999999991e-05
571 1 3.8295557616499196e-06 1000 4.3999999999999999e-05 5.9999999999999995e-05 3.9999999999999998e-06
572 1 1.2574148957672127e-06 1000 4.3999999999999999e-05 5.9999999999999995e-05 1.2e-05
573 1 1.5725784359265314e-06 1000 4.3999999999999999e-05 5.9999999999999995e-05 1.9999999999999998e-05
574 1 2.0444538048461819e-06 1000 4.3999999999999999e-05 5.9999999999999995e-05 2.8e-05
575 1 1.3103142795618693e-06 1000 4.3999999999999999e-05 5.9999999999999995e-05 3.6000000000000001e-05
576 1 1.9772726159651678e-06 1000 4.3999999999999999e-05 5.9999999999999995e-05 4.3999999999999999e-05
577 1 2.6916154078715409e-06 1000 4.3999999999999999e-05 5.9999999999999995e-05 5.1999999999999997e-05
578 1 1.1650107940664915e-06 1000 4.3999999999999999e-05 5.9999999999999995e-05 5.9999999999999995e-05
579 1 1.843662114577063e-06 1000 4.3999999999999999e-05 5.9999999999999995e-05 6.7999999999999999e-05
580 1 2.0000842490315719e-06 1000 4.3999999999999999e-05 5.9999999999999995e-05 7.5999999999999991e-05
581 1 2.4380730618756322e-06 1000 4.3999999999999999e-05 6.7999999999999999e-05 3.9999999999999998e-06
582 1 2.2626878299774563e-06 1000 4.3999999999999999e-05 6.7999999999999999e-05 1.2e-05
583 1 1.7045767391256878e-06 1000 4.3999999999999999e-05 6.7999999999999999e-05 1.9999999999999998e-05
584 1 1.187770778825862e-06 1000 4.3999999999999999e-05 6.7999999999999999e-05 2.8e-05
585 1 1.3754062240325266e-06 1000 4.3999999999999999e-05 6.7999999999999999e-05 3.6000000000000001e-05
586 1 1.2345471606631425e-06 1000 4.3999999999999999e-05 6.7999999999999999e-05 4.3999999999999999e-05
587 1 1.8630701776632185e-06 1000 4.3999999999999999e-05 6.7999999999999999e-05 5.1999999999999997e-05
588 1 3.0210099055961098e-06 1000 4.3999999999999999e-05 6.7999999999999999e-05 5.9999999999999995e-05
589 1 3.3127517469086122e-06 1000 4.3999999999999999e-05 6.7999999999999999e-05 6.7999999999999999e-05
590 1 1.7636647037044641e-06 1000 4.3999999999999999e-05 6.7999999999999999e-05 7.5999999999999991e-05
591 1 1.6449920230209042e-06 1000 4.3999999999999999e-05 7.5999999999999991e-05 3.9999999999999998e-06
592 1 1.8354462500514561e-06 1000 4.3999999999999999e-05 7.5999999999999991e-05 1.2e-05
593 1 3.6831471588007575e-06 1000 4.3999999999999999e-05 7.5999999999999991e-05 1.9999999999999998e-05
594 1 2.1555399961794742e-06 1000 4.3999999999999999e-05 7.5999999999999991e-05 2.8e-05
595 1 8.5144337784467303e-07 1000 4.3999999999999999e-05 7.5999999999999991e-05 3.6000000000000001e-05
596 1 3.4168459941627381e-06 1000 4.3999999999999999e-05 7.5999999999999991e-05 4.3999999999999999e-05
597 1 3.3331672894203803e-06 1000 4.3999999999999999e-05 7.5999999999999991e-05 5.1999999999999997e-05
598 1 2.0166235149546848e-06 1000 4.3999999999999999e-05 7.5999999999999991e-05 5.9999999999999995e-05
599 1 1.279762566826209e-06 1000 4.3999999999999999e-05 7.5999999999999991e-05 6.7999999999999999e-05
600 1 1.9174151620419216e-06 1000 4.3999999999999999e-05 7.5999999999999991e-05 7.5999999999999991e-05
601 1 2.9284040228923519e-06 1000 5.1999999999999997e-05 3.9999999999999998e-06 3.9999999999999998e-06
602 1 2.6182022113488262e-06 1000 5.1999999999999997e-05 3.9999999999999998e-06 1.2e-05
603 1 1.6175866003513083e-06 1000 5.1999999999999997e-05 3.9999999999999998e-06 1.9999999999999998e-05
604 1 2.3344003307816574e-06 1000 5.1999999999999997e-05 3.9999999999999998e-06 2.8e-05
605 1 3.2058774728348531e-06 1000 5.1999999999999997e-05 3.9999999999999998e-06 3.6000000000000001e-05
606 1 2.079847657171638e-06 1000 5.1999999999999997e-05 3.9999999999999998e-06 4.3999999999999999e-05
607 1 2.9625017807263571e-06 1000 5.1999999999999997e-05 3.9999999999999998e-06 5.1999999999999997e-05
608 1 1.650925962705259e-06 1000 5.1999999999999997e-05 3.9999999999999998e-06 5.9999999999999995e-05
609 1 4.0060499664746379e-06 1000 5.1999999999999997e-05 3.9999999999999998e-06 6.7999999999999999e-05
610 1 3.8238663063265866e-06 1000 5.1999999999999997e-05 3.9999999999999998e-06 7.5999999999999991e-05
611 1 1.7835851788706169e-06 1000 5.1999999999999997e-05 1.2e-05 3.9999999999999998e-06
612 1 2.1021901495384425e-06 1000 5.1999999999999997e-05 1.2e-05 1.2e-05
613 1 1.7474461853061809e-06 1000 5.1999999999999997e-05 1.2e-05 1.9999999999999998e-05
614 1 3.6358932887215306e-06 1000 5.1999999999999997e-05 1.2e-05 2.8e-05
615 1 1.8238131987213562e-06 1000 5.1999999999999997e-05 1.2e-05 3.6000000000000001e-05
616 1 2.0735276691830917e-06 1000 5.1999999999999997e-05 1.2e-05 4.3999999999999999e-05
617 1 1.0441263853716128e-06 1000 5.1999999999999997e-05 1.2e-05 5.1999999999999997e-05
618 1 1.9928965062400464e-06 1000 5.1999999999999997e-05 1.2e-05 5.9999999999999995e-05
619 1 2.4612686813933158e-06 1000 5.1999999999999997e-05 1.2e-05 6.7999999999999999e-05
620 1 1.887966514030986e-06 1000 5.1999999999999997e-05 1.2e-05 7.5999999999999991e-05
621 1 1.4431723302499181e-06 1000 5.1999999999999997e-05 1.9999999999999998e-05 3.9999999999999998e-06
622 1 2.0725043930630093e-06 1000 5.1999999999999997e-05 1.9999999999999998e-05 1.2e-05
623 1 3.0420200170592173e-06 1000 5.1999999999999997e-05 1.9999999999999998e-05 1.9999999999999998e-05
624 1 1.9861816269442128e-06 1000 5.1999999999999997e-05 1.9999999999999998e-05 2.8e-05
625 1 1.5627094439694922e-06 1000 5.1999999999999997e-05 1.9999999999999998e-05 3.6000000000000001e-05
626 1 1.8448323385395783e-06 1000 5.1999999999999997e-05 1.9999999999999998e-05 4.3999999999999999e-05
627 1 1.4318379215377831e-06 1000 5.1999999999999997e-05 1.9999999999999998e-05 5.1999999999999997e-05
628 1 2.3417711756906651e-06 1000 5.1999999999999997e-05 1.9999999999999998e-05 5.9999999999999995e-05
629 1 3.8275832199323967e-06 1000 5.1999999999999997e-05 1.9999999999999998e-05 6.7999999999999999e-05
630 1 2.4933345690386614e-06 1000 5.1999999999999997e-05 1.9999999999999998e-05 7.5999999999999991e-05
631 1 3.7058266558852921e-06 1000 5.1999999999999997e-05 2.8e-05 3.9999999999999998e-06
632 1 2.6139789897335032e-06 1000 5.1999999999999997e-05 2.8e-05 1.2e-05
633 1 1.6503780166501655e-06 1000 5.1999999999999997e-05 2.8e-05 1.9999999999999998e-05
634 1 2.0540298401087213e-06 1000 5.1999999999999997e-05 2.8e-05 2.8e-05
635 1 2.8316208235611085e-06 1000 5.1999999999999997e-05 2.8e-05 3.6000000000000001e-05
636 1 1.7288546727001267e-06 1000 5.1999999999999997e-05 2.8e-05 4.3999999999999999e-05
637 1 2.1171651451781483e-06 1000 5.1999999999999997e-05 2.8e-05 5.1999999999999997e-05
638 1 2.3108264394576835e-06 1000 5.1999999999999997e-05 2.8e-05 5.9999999999999995e-05
639 1 2.2585268753652379e-06 1000 5.1999999999999997e-05 2.8e-05 6.7999999999999999e-05
640 1 1.8280024150633594e-06 1000 5.1999999999999997e-05 2.8e-05 7.5999999999999991e-05
641 1 2.4754419616294557e-06 1000 5.1999999999999997e-05 3.6000000000000001e-05 3.9999999999999998e-06
642 1 1.6242406242957831e-06 1000 5.1999999999999997e-05 3.6000000000000001e-05 1.2e-05
643 1 2.5572672256850613e-06 1000 5.1999999999999997e-05 3.6000000000000001e-05 1.9999999999999998e-05
644 1 1.3307689492757788e-06 1000 5.1999999999999997e-05 3.6000000000000001e-05 2.8e-05
645 1 2.2334959045829093e-06 1000 5.1999999999999997e-05 3.6000000000000001e-05 3.6000000000000001e-05
646 1 4.7985973241003473e-06 1000 5.1999999999999997e-05 3.6000000000000001e-05 4.3999999999999999e-05
647 1 1.7475396292450368e-06 1000 5.1999999999999997e-05 3.6000000000000001e-05 5.1999999999999997e-05
648 1 2.1818442634883727e-06 1000 5.1999999999999997e-05 3.6000000000000001e-05 5.9999999999999995e-05
649 1 1.7694132116013048e-06 1000 5.1999999999999997e-05 3.6000000000000001e-05 6.7999999999999999e-05
650 1 1.7809656300970204e-06 1000 5.1999999999999997e-05 3.6000000000000001e-05 7.5999999999999991e-05
651 1 1.2501235529836748e-06 1000 5.1999999999999997e-05 4.3999999999999999e-05 3.9999999999999998e-06
652 1 1.2614868989360667e-06 1000 5.1999999999999997e-05 4.3999999999999999e-05 1.2e-05
653 1 4.0284756713577478e-06 1000 5.1999999999999997e-05 4.3999999999999999e-05 1.9999999999999998e-05
654 1 2.0268334283774073e-06 1000 5.1999999999999997e-05 4.3999999999999999e-05 2.8e-05
655 1 3.7718423239215498e-06 1000 5.1999999999999997e-05 4.3999999999999999e-05 3.6000000000000001e-05
656 1 2.7302114207492977e-06 1000 5.1999999999999997e-05 4.3999999999999999e-05 4.3999999999999999e-05
657 1 1.6520296651944849e-06 1000 5.1999999999999997e-05 4.3999999999999999e-05 5.1999999999999997e-05
658 1 1.4645371316842142e-06 1000 5.1999999999999997e-05 4.3999999999999999e-05 5.9999999999999995e-05
659 1 9.964140520743833e-07 1000 5.1999999999999997e-05 4.3999999999999999e-05 6.7999999999999999e-05
660 1 1.8026501807837475e-06 1000 5.1999999999999997e-05 4.3999999999999999e-05 7.5999999999999991e-05
661 1 1.9569019535147335e-06 1000 5.1999999999999997e-05 5.1999999999999997e-05 3.9999999999999998e-06
662 1 2.4861125932978384e-06 1000 5.1999999999999997e-05 5.1999999999999997e-05 1.2e-05
663 1 2.0675516211408252e-06 1000 5.1999999999999997e-05 5.1999999999999997e-05 1.9999999999999998e-05
664 1 2.0067087831317183e-06 1000 5.1999999999999997e-05 5.1999999999999997e-05 2.8e-05
665 1 1.9346192269302388e-06 1000 5.1999999999999997e-05 5.1999999999999997e-05 3.6000000000000001e-05
666 1 1.8349580508119684e-06 1000 5.1999999999999997e-05 5.1999999999999997e-05 4.3999999999999999e-05
667 1 1.7517399796220813e-06 1000 5.1999999999999997e-05 5.1999999999999997e-05 5.1999999999999997e-05
668 1 2.183166312988459e-06 1000 5.1999999999999997e-05 5.1999999999999997e-05 5.9999999999999995e-05
669 1 1.6326692235339932e-06 1000 5.1999999999999997e-05 5.1999999999999997e-05 6.7999999999999999e-05
670 1 2.3035166677956549e-06 1000 5.1999999999999997e-05 5.1999999999999997e-05 7.5999999999999991e-05
671 1 1.721396803944024e-06 1000 5.1999999999999997e-05 5.9999999999999995e-05 3.9999999999999998e-06
672 1 2.878451258375995e-06 1000 5.1999999999999997e-05 5.9999999999999995e-05 1.2e-05
673 1 1.7777335313481127e-06 1000 5.1999999999999997e-05 5.9999999999999995e-05 1.9999999999999998e-05
674 1 3.9179368388668233e-06 1000 5.1999999999999997e-05 5.9999999999999995e-05 2.8e-05
675 1 1.2683182222603735e-06 1000 5.1999999999999997e-05 5.9999999999999995e-05 3.6000000000000001e-05
676 1 3.069077992075835e-06 1000 5.1999999999999997e-05 5.9999999999999995e-05 4.3999999999999999e-05
677 1 3.794438782027542e-06 1000 5.1999999999999997e-05 5.9999999999999995e-05 5.1999999999999997e-05
678 1 1.9997561394687346e-06 1000 5.1999999999999997e-05 5.9999999999999995e-05 5.9999999999999995e-05
679 1 1.7398113614509166e-06 1000 5.1999999999999997e-05 5.9999999999999995e-05 6.7999999999999999e-05
680 1 1.8104633256759343e-06 1000 5.1999999999999997e-05 5.9999999999999995e-05 7.5999999999999991e-05
681 1 3.0974664117071893e-06 1000 5.1999999999999997e-05 6.7999999999999999e-05 3.9999999999999998e-06
682 1 2.6519357542435896e-06 1000 5.1999999999999997e-05 6.7999999999999999e-05 1.2e-05
683 1 2.8261571390841762e-06 1000 5.1999999999999997e-05 6.7999999999999999e-05 1.9999999999999998e-05
684 1 2.3884906644933083e-06 1000 5.1999999999999997e-05 6.7999999999999999e-05 2.8e-05
685 1 1.8190984972861959e-06 1000 5.1999999999999997e-05 6.7999999999999999e-05 3.6000000000000001e-05
686 1 2.1778746552091435e-06 1000 5.1999999999999997e-05 6.7999999999999999e-05 4.3999999999999999e-05
687 1 2.1910791575358654e-06 1000 5.1999999999999997e-05 6.7999999999999999e-05 5.1999999999999997e-05
688 1 1.2946648961583793e-06 1000 5.1999999999999997e-05 6.7999999999999999e-05 5.9999999999999995e-05
689 1 2.1056653328112319e-06 1000 5.1999999999999997e-05 6.7999999999999999e-05 6.7999999999999999e-05
690 1 1.9393041618569728e-06 1000 5.1999999999999997e-05 6.7999999999999999e-05 7.5999999999999991e-05
691 1 1.3781390852301153e-06 1000 5.1999999999999997e-05 7.5999999999999991e-05 3.9999999999999998e-06
692 1 2.1414711776717506e-06 1000 5.1999999999999997e-05 7.5999999999999991e-05 1.2e-05
693 1 1.8244186925625723e-06 1000 5.1999999999999997e-05 7.5999999999999991e-05 1.9999999999999998e-05
694 1 3.5230620599955508e-06 1000 5.1999999999999997e-05 7.5999999999999991e-05 2.8e-05
695 1 1.8689965036028879e-06 1000 5.1999999999999997e-05 7.5999999999999991e-05 3.6000000000000001e-05
696 1 3.0830726408395528e-06 1000 5.1999999999999997e-05 7.5999999999999991e-05 4.3999999999999999e-05
697 1 1.6720416513995114e-06 1000 5.1999999999999997e-05 7.5999999999999991e-05 5.1999999999999997e-05
698 1 1.6248115769862339e-06 1000 5.1999999999999997e-05 7.5999999999999991e-05 5.9999999999999995e-05
699 1 2.4546309393647428e-06 1000 5.1999999999999997e-05 7.5999999999999991e-05 6.7999999999999999e-05
700 1 1.8296184908758149e-06 1000 5.1999999999999997e-05 7.5999999999999991e-05 7.5999999999999991e-05
701 1 2.8108634116543418e-06 1000 5.9999999999999995e-05 3.9999999999999998e-06 3.9999999999999998e-06
702 1 1.7626417589795923e-06 1000 5.9999999999999995e-05 3.9999999999999998e-06 1.2e-05
703 1 1.5907399158792229e-06 1000 5.9999999999999995e-05 3.9999999999999998e-06 1.9999999999999998e-05
704 1 1.538187634428105e-06 1000 5.9999999999999995e-05 3.9999999999999998e-06 2.8e-05
705 1 2.3557613066882685e-06 1000 5.9999999999999995e-05 3.9999999999999998e-06 3.6000000000000001e-05
706 1 1.5400907209051852e-06 1000 5.9999999999999995e-05 3.9999999999999998e-06 4.3999999999999999e-05
707 1 2.0227256735602183e-06 1000 5.9999999999999995e-05 3.9999999999999998e-06 5.1999999999999997e-05
708 1 1.5365925999507566e-06 1000 5.9999999999999995e-05 3.9999999999999998e-06 5.9999999999999995e-05
709 1 2.5402985189310493e-06 1000 5.9999999999999995e-05 3.9999999999999998e-06 6.7999999999999999e-05
710 1 2.8050847116965984e-06 1000 5.9999999999999995e-05 3.9999999999999998e-06 7.5999999999999991e-05
711 1 1.1593697948416613e-06 1000 5.9999999999999995e-05 1.2e-05 3.9999999999999998e-06
712 1 1.6556612238309644e-06 1000 5.9999999999999995e-05 1.2e-05 1.2e-05
713 1 2.2737256392686033e-06 1000 5.9999999999999995e-05 1.2e-05 1.9999999999999998e-05
714 1 1.2045144909072522e-06 1000 5.9999999999999995e-05 1.2e-05 2.8e-05
715 1 2.1874652055243762e-06 1000 5.9999999999999995e-05 1.2e-05 3.6000000000000001e-05
716 1 1.6049748769455533e-06 1000 5.9999999999999995e-05 1.2e-05 4.3999999999999999e-05
717 1 2.3031826802461906e-06 1000 5.9999999999999995e-05 1.2e-05 5.1999999999999997e-05
718 1 1.4889019638894503e-06 1000 5.9999999999999995e-05 1.2e-05 5.9999999999999995e-05
719 1 1.7137710526539023e-06 1000 5.9999999999999995e-05 1.2e-05 6.7999999999999999e-05
720 1 1.1844518270333988e-06 1000 5.9999999999999995e-05 1.2e-05 7.5999999999999991e-05
721 1 1.385016899790851e-06 1000 5.9999999999999995e-05 1.9999999999999998e-05 3.9999999999999998e-06
722 1 1.9345782477703579e-06 1000 5.9999999999999995e-05 1.9999999999999998e-05 1.2e-05
723 1 1.2200530974188271e-06 1000 5.9999999999999995e-05 1.9999999999999998e-05 1.9999999999999998e-05
724 1 2.1089078092959263e-06 1000 5.9999999999999995e-05 1.9999999999999998e-05 2.8e-05
725 1 1.4484811065613658e-06 1000 5.9999999999999995e-05 1.9999999999999998e-05 3.6000000000000001e-05
726 1 2.4090112536402855e-06 1000 5.9999999999999995e-05 1.9999999999999998e-05 4.3999999999999999e-05
727 1 2.4971849298646452e-06 1000 5.9999999999999995e-05 1.9999999999999998e-05 5.1999999999999997e-05
728 1 2.7154537107116526e-06 1000 5.9999999999999995e-05 1.9999999999999998e-05 5.9999999999999995e-05
729 1 1.716099754845972e-06 1000 5.9999999999999995e-05 1.9999999999999998e-05 6.7999999999999999e-05
730 1 1.6712217071459777e-06 1000 5.9999999999999995e-05 1.9999999999999998e-05 7.5999999999999991e-05
731 1 2.0305918319884428e-06 1000 5.9999999999999995e-05 2.8e-05 3.9999999999999998e-06
732 1 2.2461037040842089e-06 1000 5.9999999999999995e-05 2.8e-05 1.2e-05
733 1 2.4965846924147e-06 1000 5.9999999999999995e-05 2.8e-05 1.9999999999999998e-05
734 1 2.0222476513208811e-06 1000 5.9999999999999995e-05 2.8e-05 2.8e-05
735 1 2.336580881486613e-06 1000 5.9999999999999995e-05 2.8e-05 3.6000000000000001e-05
736 1 1.2142167202499756e-06 1000 5.9999999999999995e-05 2.8e-05 4.3999999999999999e-05
737 1 1.4808852589149618e-06 1000 5.9999999999999995e-05 2.8e-05 5.1999999999999997e-05
738 1 2.0264565870282491e-06 1000 5.9999999999999995e-05 2.8e-05 5.9999999999999995e-05
739 1 1.3383295912860168e-06 1000 5.9999999999999995e-05 2.8e-05 6.7999999999999999e-05
740 1 2.1060461686245492e-06 1000 5.9999999999999995e-05 2.8e-05 7.5999999999999991e-05
741 1 2.1770262669015563e-06 1000 5.9999999999999995e-05 3.6000000000000001e-05 3.9999999999999998e-06
742 1 2.0970958217559652e-06 1000 5.9999999999999995e-05 3.6000000000000001e-05 1.2e-05
743 1 2.5974689743402299e-06 1000 5.9999999999999995e-05 3.6000000000000001e-05 1.9999999999999998e-05
744 1 3.5466683899240133e-06 1000 5.9999999999999995e-05 3.6000000000000001e-05 2.8e-05
745 1 4.5893607224627791e-06 1000 5.9999999999999995e-05 3.6000000000000001e-05 3.6000000000000001e-05
746 1 1.6762943951784352e-06 1000 5.9999999999999995e-05 3.6000000000000001e-05 4.3999999999999999e-05
747 1 1.7726162596533042e-06 1000 5.9999999999999995e-05 3.6000000000000001e-05 5.1999999999999997e-05
748 1 3.3042376300234713e-06 1000 5.9999999999999995e-05 3.6000000000000001e-05 5.9999999999999995e-05
749 1 2.7309278275685334e-06 1000 5.9999999999999995e-05 3.6000000000000001e-05 6.7999999999999999e-05
750 1 1.7173199195431874e-06 1000 5.9999999999999995e-05 3.6000000000000001e-05 7.5999999999999991e-05
751 1 2.1650139311035924e-06 1000 5.9999999999999995e-05 4.3999999999999999e-05 3.9999999999999998e-06
752 1 1.5362327843793296e-06 1000 5.9999999999999995e-05 4.3999999999999999e-05 1.2e-05
753 1 1.7308241266008812e-06 1000 5.9999999999999995e-05 4.3999999999999999e-05 1.9999999999999998e-05
754 1 1.1278931901039056e-06 1000 5.9999999999999995e-05 4.3999999999999999e-05 2.8e-05
755 1 1.9168897420915758e-06 1000 5.9999999999999995e-05 4.3999999999999999e-05 3.6000000000000001e-05
756 1 2.0393994498527419e-06 1000 5.9999999999999995e-05 4.3999999999999999e-05 4.3999999999999999e-05
757 1 1.7839041581741788e-06 1000 5.9999999999999995e-05 4.3999999999999999e-05 5.1999999999999997e-05
758 1 1.6221142526688932e-06 1000 5.9999999999999995e-05 4.3999999999999999e-05 5.9999999999999995e-05
759 1 1.4743611266344044e-06 1000 5.9999999999999995e-05 4.3999999999999999e-05 6.7999999999999999e-05
760 1 1.6266877295942344e-06 1000 5.9999999999999995e-05 4.3999999999999999e-05 7.5999999999999991e-05
761 1 2.7552608921004557e-06 1000 5.9999999999999995e-05 5.1999999999999997e-05 3.9999999999999998e-06
762 1 1.7268210121095257e-06 1000 5.9999999999999995e-05 5.1999999999999997e-05 1.2e-05
763 1 1.9581759478606768e-06 1000 5.9999999999999995e-05 5.1999999999999997e-05 1.9999999999999998e-05
764 1 2.180553341506737e-06 1000 5.9999999999999995e-05 5.1999999999999997e-05 2.8e-05
765 1 2.0337594928250431e-06 1000 5.9999999999999995e-05 5.1999999999999997e-05 3.6000000000000001e-05
766 1 1.4617052432430904e-06 1000 5.9999999999999995e-05 5.1999999999999997e-05 4.3999999999999999e-05
767 1 2.6370648215127979e-06 1000 5.9999999999999995e-05 5.1999999999999997e-05 5.1999999999999997e-05
768 1 1.6519328755848089e-06 1000 5.9999999999999995e-05 5.1999999999999997e-05 5.9999999999999995e-05
769 1 3.0528928760913762e-06 1000 5.9999999999999995e-05 5.1999999999999997e-05 6.7999999999999999e-05
770 1 2.5389685175703905e-06 1000 5.9999999999999995e-05 5.1999999999999997e-05 7.5999999999999991e-05
771 1 1.5813432220978669e-06 1000 5.9999999999999995e-05 5.9999999999999995e-05 3.9999999999999998e-06
772 1 1.1189251942524058e-06 1000 5.9999999999999995e-05 5.9999999999999995e-05 1.2e-05
773 1 1.7585944755135279e-06 1000 5.9999999999999995e-05 5.9999999999999995e-05 1.9999999999999998e-05
774 1 2.2434598804216678e-06 1000 5.9999999999999995e-05 5.9999999999999995e-05 2.8e-05
775 1 1.5339200486987595e-06 1000 5.9999999999999995e-05 5.9999999999999995e-05 3.6000000000000001e-05
776 1 1.9445762681758477e-06 1000 5.9999999999999995e-05 5.9999999999999995e-05 4.3999999999999999e-05
777 1 2.049314681257328e-06 1000 5.9999999999999995e-05 5.9999999999999995e-05 5.1999999999999997e-05
778 1 1.5376994134932351e-06 1000 5.9999999999999995e-05 5.9999999999999995e-05 5.9999999999999995e-05
779 1 1.0614591727158896e-06 1000 5.9999999999999995e-05 5.9999999999999995e-05 6.7999999999999999e-05
780 1 2.0660791952316267e-06 1000 5.9999999999999995e-05 5.9999999999999995e-05 7.5999999999999991e-05
781 1 2.3227626181699861e-06 1000 5.9999999999999995e-05 6.7999999999999999e-05 3.9999999999999998e-06
782 1 1.5190623597350217e-06 1000 5.9999999999999995e-05 6.7999999999999999e-05 1.2e-05
783 1 2.699437034821662e-06 1000 5.9999999999999995e-05 6.7999999999999999e-05 1.9999999999999998e-05
784 1 1.5148444033234729e-06 1000 5.9999999999999995e-05 6.7999999999999999e-05 2.8e-05
785 1 1.8836748284497417e-06 1000 5.9999999999999995e-05 6.7999999999999999e-05 3.6000000000000001e-05
786 1 3.5722541467008444e-06 1000 5.9999999999999995e-05 6.7999999999999999e-05 4.3999999999999999e-05
787 1 1.2761988377488102e-06 1000 5.9999999999999995e-05 6.7999999999999999e-05 5.1999999999999997e-05
788 1 3.5243670199958282e-06 1000 5.9999999999999995e-05 6.7999999999999999e-05 5.9999999999999995e-05
789 1 2.5977783379038396e-06 1000 5.9999999999999995e-05 6.7999999999999999e-05 6.7999999999999999e-05
790 1 1.4013738423067087e-06 1000 5.9999999999999995e-05 6.7999999999999999e-05 7.5999999999999991e-05
791 1 1.8485143875476487e-06 1000 5.9999999999999995e-05 7.5999999999999991e-05 3.9999999999999998e-06
792 1 4.1753175571366431e-06 1000 5.9999999999999995e-05 7.5999999999999991e-05 1.2e-05
793 1 1.3624681902055938e-06 1000 5.9999999999999995e-05 7.5999999999999991e-05 1.9999999999999998e-05
794 1 2.8903214422210906e-06 1000 5.9999999999999995e-05 7.5999999999999991e-05 2.8e-05
795 1 2.6533692118263104e-06 1000 5.9999999999999995e-05 7.5999999999999991e-05 3.6000000000000001e-05
796 1 1.7191103923821563e-06 1000 5.9999999999999995e-05 7.5999999999999991e-05 4.3999999999999999e-05
797 1 1.0704146676128263e-06 1000 5.9999999999999995e-05 7.5999999999999991e-05 5.1999999999999997e-05
798 1 2.0211898359764336e-06 1000 5.9999999999999995e-05 7.5999999999999991e-05 5.9999999999999995e-05
799 1 1.6355903688007808e-06 1000 5.9999999999999995e-05 7.5999999999999991e-05 6.7999999999999999e-05
800 1 1.3078383818334207e-06 1000 5.9999999999999995e-05 7.5999999999999991e-05 7.5999999999999991e-05
801 1 1.6847352514161306e-06 1000 6.7999999999999999e-05 3.9999999999999998e-06 3.9999999999999998e-06
802 1 2.3787853625234579e-06 1000 6.7999999999999999e-05 3.9999999999999998e-06 1.2e-05
803 1 1.943078700492453e-06 1000 6.7999999999999999e-05 3.9999999999999998e-06 1.9999999999999998e-05
804 1 2.2057936717178758e-06 1000 6.7999999999999999e-05 3.9999999999999998e-06 2.8e-05
805 1 1.3460366328612695e-06 1000 6.7999999999999999e-05 3.9999999999999998e-06 3.6000000000000001e-05
806 1 2.2434739418776786e-06 1000 6.7999999999999999e-05 3.9999999999999998e-06 4.3999999999999999e-05
807 1 2.0176363215960079e-06 1000 6.7999999999999999e-05 3.9999999999999998e-06 5.1999999999999997e-05
808 1 1.3531828733398155e-06 1000 6.7999999999999999e-05 3.9999999999999998e-06 5.9999999999999995e-05
809 1 2.119431896079564e-06 1000 6.7999999999999999e-05 3.9999999999999998e-06 6.7999999999999999e-05
810 1 2.6845650867363057e-06 1000 6.7999999999999999e-05 3.9999999999999998e-06 7.5999999999999991e-05
811 1 2.905869382720685e-06 1000 6.7999999999999999e-05 1.2e-05 3.9999999999999998e-06
812 1 1.2852466032117849e-06 1000 6.7999999999999999e-05 1.2e-05 1.2e-05
813 1 2.0763710029073626e-06 1000 6.7999999999999999e-05 1.2e-05 1.9999999999999998e-05
814 1 2.2876533486009024e-06 1000 6.7999999999999999e-05 1.2e-05 2.8e-05
815 1 2.968245118011497e-06 1000 6.7999999999999999e-05 1.2e-05 3.6000000000000001e-05
816 1 1.9007028359084277e-06 1000 6.7999999999999999e-05 1.2e-05 4.3999999999999999e-05
817 1 1.6288799676825254e-06 1000 6.7999999999999999e-05 1.2e-05 5.1999999999999997e-05
818 1 2.736401659768305e-06 1000 6.7999999999999999e-05 1.2e-05 5.9999999999999995e-05
819 1 2.1542326982773938e-06 1000 6.7999999999999999e-05 1.2e-05 6.7999999999999999e-05
820 1 3.7742637648062143e-06 1000 6.7999999999999999e-05 1.2e-05 7.5999999999999991e-05
821 1 1.8738318739816301e-06 1000 6.7999999999999999e-05 1.9999999999999998e-05 3.9999999999999998e-06
822 1 1.446061487726232e-06 1000 6.7999999999999999e-05 1.9999999999999998e-05 1.2e-05
823 1 1.1751385969937141e-06 1000 6.7999999999999999e-05 1.9999999999999998e-05 1.9999999999999998e-05
824 1 1.6816421811939504e-06 1000 6.7999999999999999e-05 1.9999999999999998e-05 2.8e-05
825 1 1.4056894061646186e-06 1000 6.7999999999999999e-05 1.9999999999999998e-05 3.6000000000000001e-05
826 1 1.8462184027443684e-06 1000 6.7999999999999999e-05 1.9999999999999998e-05 4.3999999999999999e-05
827 1 3.0187984942169993e-06 1000 6.7999999999999999e-05 1.9999999999999998e-05 5.1999999999999997e-05
828 1 1.3953424877229192e-06 1000 6.7999999999999999e-05 1.9999999999999998e-05 5.9999999999999995e-05
829 1 1.9158193707244636e-06 1000 6.7999999999999999e-05 1.9999999999999998e-05 6.7999999999999999e-05
830 1 1.7040042123846692e-06 1000 6.7999999999999999e-05 1.9999999999999998e-05 7.5999999999999991e-05
831 1 1.7510402327308891e-06 1000 6.7999999999999999e-05 2.8e-05 3.9999999999999998e-06
832 1 2.1927536440566711e-06 1000 6.7999999999999999e-05 2.8e-05 1.2e-05
833 1 2.2693356154303844e-06 1000 6.7999999999999999e-05 2.8e-05 1.9999999999999998e-05
834 1 2.2297638036024267e-06 1000 6.7999999999999999e-05 2.8e-05 2.8e-05
835 1 1.8242322351853435e-06 1000 6.7999999999999999e-05 2.8e-05 3.6000000000000001e-05
836 1 1.3194288024099674e-06 1000 6.7999999999999999e-05 2.8e-05 4.3999999999999999e-05
837 1 1.7069060194546848e-06 1000 6.7999999999999999e-05 2.8e-05 5.1999999999999997e-05
838 1 1.5692083174492078e-06 1000 6.7999999999999999e-05 2.8e-05 5.9999999999999995e-05
839 1 2.0396249212215368e-06 1000 6.7999999999999999e-05 2.8e-05 6.7999999999999999e-05
840 1 1.9479954672686437e-06 1000 6.7999999999999999e-05 2.8e-05 7.5999999999999991e-05
841 1 1.1511950987144313e-06 1000 6.7999999999999999e-05 3.6000000000000001e-05 3.9999999999999998e-06
842 1 2.100372558777655e-06 1000 6.7999999999999999e-05 3.6000000000000001e-05 1.2e-05
843 1 1.6484920036379819e-06 1000 6.7999999999999999e-05 3.6000000000000001e-05 1.9999999999999998e-05
844 1 2.7156849814774468e-06 1000 6.7999999999999999e-05 3.6000000000000001e-05 2.8e-05
845 1 2.5787202205898924e-06 1000 6.7999999999999999e-05 3.6000000000000001e-05 3.6000000000000001e-05
846 1 1.8178327941225885e-06 1000 6.7999999999999999e-05 3.6000000000000001e-05 4.3999999999999999e-05
847 1 1.5630239889006062e-06 1000 6.7999999999999999e-05 3.6000000000000001e-05 5.1999999999999997e-05
848 1 1.3036421856136829e-06 1000 6.7999999999999999e-05 3.6000000000000001e-05 5.9999999999999995e-05
849 1 1.7603835632217756e-06 1000 6.7999999999999999e-05 3.6000000000000001e-05 6.7999999999999999e-05
850 1 3.8681099127710759e-06 1000 6.7999999999999999e-05 3.6000000000000001e-05 7.5999999999999991e-05
851 1 3.1564905619319435e-06 1000 6.7999999999999999e-05 4.3999999999999999e-05 3.9999999999999998e-06
852 1 1.1340008677753489e-06 1000 6.7999999999999999e-05 4.3999999999999999e-05 1.2e-05
853 1 1.9352061128670139e-06 1000 6.7999999999999999e-05 4.3999999999999999e-05 1.9999999999999998e-05
854 1 2.2288766536717474e-06 1000 6.7999999999999999e-05 4.3999999999999999e-05 2.8e-05
855 1 2.4221010108914138e-06 1000 6.7999999999999999e-05 4.3999999999999999e-05 3.6000000000000001e-05
856 1 1.2740802913232146e-06 1000 6.7999999999999999e-05 4.3999999999999999e-05 4.3999999999999999e-05
857 1 2.5026960658489098e-06 1000 6.7999999999999999e-05 4.3999999999999999e-05 5.1999999999999997e-05
858 1 2.4126957410990286e-06 1000 6.7999999999999999e-05 4.3999999999999999e-05 5.9999999999999995e-05
859 1 3.4248957505010264e-06 1000 6.7999999999999999e-05 4.3999999999999999e-05 6.7999999999999999e-05
860 1 1.1164870187172814e-06 1000 6.7999999999999999e-05 4.3999999999999999e-05 7.5999999999999991e-05
861 1 2.4634384719816399e-06 1000 6.7999999999999999e-05 5.1999999999999997e-05 3.9999999999999998e-06
862 1 1.8311866247385724e-06 1000 6.7999999999999999e-05 5.1999999999999997e-05 1.2e-05
863 1 3.3485602018977659e-06 1000 6.7999999999999999e-05 5.1999999999999997e-05 1.9999999999999998e-05
864 1 2.1399573068937534e-06 1000 6.7999999999999999e-05 5.1999999999999997e-05 2.8e-05
865 1 2.6123376371639979e-06 1000 6.7999999999999999e-05 5.1999999999999997e-05 3.6000000000000001e-05
866 1 1.6016692102892253e-06 1000 6.7999999999999999e-05 5.1999999999999997e-05 4.3999999999999999e-05
867 1 1.7705460335870642e-06 1000 6.7999999999999999e-05 5.1999999999999997e-05 5.1999999999999997e-05
868 1 1.9307198149797076e-06 1000 6.7999999999999999e-05 5.1999999999999997e-05 5.9999999999999995e-05
869 1 1.2738169591758946e-06 1000 6.7999999999999999e-05 5.1999999999999997e-05 6.7999999999999999e-05
870 1 1.8498057772847553e-06 1000 6.7999999999999999e-05 5.1999999999999997e-05 7.5999999999999991e-05
871 1 1.3949147491270998e-06 1000 6.7999999999999999e-05 5.9999999999999995e-05 3.9999999999999998e-06
872 1 2.7663295070101433e-06 1000 6.7999999999999999e-05 5.9999999999999995e-05 1.2e-05
873 1 2.6588557396367694e-06 1000 6.7999999999999999e-05 5.9999999999999995e-05 1.9999999999999998e-05
874 1 2.0759689620185737e-06 1000 6.7999999999999999e-05 5.9999999999999995e-05 2.8e-05
875 1 2.8887618389772448e-06 1000 6.7999999999999999e-05 5.9999999999999995e-05 3.6000000000000001e-05
876 1 1.8786466620695674e-06 1000 6.7999999999999999e-05 5.9999999999999995e-05 4.3999999999999999e-05
877 1 2.4261447977099277e-06 1000 6.7999999999999999e-05 5.9999999999999995e-05 5.1999999999999997e-05
878 1 3.7989127992062005e-06 1000 6.7999999999999999e-05 5.9999999999999995e-05 5.9999999999999995e-05
879 1 1.711023891322271e-06 1000 6.7999999999999999e-05 5.9999999999999995e-05 6.7999999999999999e-05
880 1 1.4782841691676e-06 1000 6.7999999999999999e-05 5.9999999999999995e-05 7.5999999999999991e-05
881 1 1.1898241127081365e-06 1000 6.7999999999999999e-05 6.7999999999999999e-05 3.9999999999999998e-06
882 1 2.1171014981310019e-06 1000 6.7999999999999999e-05 6.7999999999999999e-05 1.2e-05
883 1 2.4151152505242016e-06 1000 6.7999999999999999e-05 6.7999999999999999e-05 1.9999999999999998e-05
884 1 2.468755120230959e-06 1000 6.7999999999999999e-05 6.7999999999999999e-05 2.8e-05
885 1 2.7457191109453615e-06 1000 6.7999999999999999e-05 6.7999999999999999e-05 3.6000000000000001e-05
886 1 1.6485982054947485e-06 1000 6.7999999999999999e-05 6.7999999999999999e-05 4.3999999999999999e-05
887 1 2.6142593717112949e-06 1000 6.7999999999999999e-05 6.7999999999999999e-05 5.1999999999999997e-05
888 1 1.7891415647650892e-06 1000 6.7999999999999999e-05 6.7999999999999999e-05 5.9999999999999995e-05
889 1 3.052636277267676e-06 1000 6.7999999999999999e-05 6.7999999999999999e-05 6.7999999999999999e-05
890 1 1.397271414314458e-06 1000 6.7999999999999999e-05 6.7999999999999999e-05 7.5999999999999991e-05
891 1 1.5831271594174493e-06 1000 6.7999999999999999e-05 7.5999999999999991e-05 3.9999999999999998e-06
892 1 3.6160739437769334e-06 1000 6.7999999999999999e-05 7.5999999999999991e-05 1.2e-05
893 1 3.0417047341529141e-06 1000 6.7999999999999999e-05 7.5999999999999991e-05 1.9999999999999998e-05
894 1 3.6900455400641181e-06 1000 6.7999999999999999e-05 7.5999999999999991e-05 2.8e-05
895 1 2.0009559044426316e-06 1000 6.7999999999999999e-05 7.5999999999999991e-05 3.6000000000000001e-05
896 1 2.9311011650229949e-06 1000 6.7999999999999999e-05 7.5999999999999991e-05 4.3999999999999999e-05
897 1 2.0606917168566951e-06 1000 6.7999999999999999e-05 7.5999999999999991e-05 5.1999999999999997e-05
898 1 2.135940435231104e-06 1000 6.7999999999999999e-05 7.5999999999999991e-05 5.9999999999999995e-05
899 1 1.5448251559044327e-06 1000 6.7999999999999999e-05 7.5999999999999991e-05 6.7999999999999999e-05
900 1 3.2386563067021739e-06 1000 6.7999999999999999e-05 7.5999999999999991e-05 7.5999999999999991e-05
901 1 8.0362510750589407e-07 1000 7.5999999999999991e-05 3.9999999999999998e-06 3.9999999999999998e-06
902 1 2.0612543095209268e-06 1000 7.5999999999999991e-05 3.9999999999999998e-06 1.2e-05
903 1 3.0064287748826593e-06 1000 7.5999999999999991e-05 3.9999999999999998e-06 1.9999999999999998e-05
904 1 2.5015598525639642e-06 1000 7.5999999999999991e-05 3.9999999999999998e-06 2.8e-05
905 1 1.0883739698222735e-06 1000 7.5999999999999991e-05 3.9999999999999998e-06 3.6000000000000001e-05
906 1 2.0868591925640478e-06 1000 7.5999999999999991e-05 3.9999999999999998e-06 4.3999999999999999e-05
907 1 1.8254608467391178e-06 1000 7.5999999999999991e-05 3.9999999999999998e-06 5.1999999999999997e-05
908 1 2.8320322431767604e-06 1000 7.5999999999999991e-05 3.9999999999999998e-06 5.9999999999999995e-05
909 1 1.1071166987245983e-06 1000 7.5999999999999991e-05 3.9999999999999998e-06 6.7999999999999999e-05
910 1 1.2394236529003426e-06 1000 7.5999999999999991e-05 3.9999999999999998e-06 7.5999999999999991e-05
911 1 2.5990699905485441e-06 1000 7.5999999999999991e-05 1.2e-05 3.9999999999999998e-06
912 1 2.0725502175641095e-06 1000 7.5999999999999991e-05 1.2e-05 1.2e-05
913 1 3.2899229341311347e-06 1000 7.5999999999999991e-05 1.2e-05 1.9999999999999998e-05
914 1 2.9437280844447326e-06 1000 7.5999999999999991e-05 1.2e-05 2.8e-05
915 1 2.69516062044296e-06 1000 7.5999999999999991e-05 1.2e-05 3.6000000000000001e-05
916 1 3.9817142825486608e-06 1000 7.5999999999999991e-05 1.2e-05 4.3999999999999999e-05
917 1 1.2548304224500827e-06 1000 7.5999999999999991e-05 1.2e-05 5.1999999999999997e-05
918 1 1.5791570143666033e-06 1000 7.5999999999999991e-05 1.2e-05 5.9999999999999995e-05
919 1 2.1924543330673573e-06 1000 7.5999999999999991e-05 1.2e-05 6.7999999999999999e-05
920 1 2.4098846862421508e-06 1000 7.5999999999999991e-05 1.2e-05 7.5999999999999991e-05
921 1 2.7805357945184404e-06 1000 7.5999999999999991e-05 1.9999999999999998e-05 3.9999999999999998e-06
922 1 3.5624340153364299e-06 1000 7.5999999999999991e-05 1.9999999999999998e-05 1.2e-05
923 1 2.1373037351398675e-06 1000 7.5999999999999991e-05 1.9999999999999998e-05 1.9999999999999998e-05
924 1 3.2375352120523256e-06 1000 7.5999999999999991e-05 1.9999999999999998e-05 2.8e-05
925 1 1.8849654217358823e-06 1000 7.5999999999999991e-05 1.9999999999999998e-05 3.6000000000000001e-05
926 1 1.5722238031846451e-06 1000 7.5999999999999991e-05 1.9999999999999998e-05 4.3999999999999999e-05
927 1 1.4802545354136123e-06 1000 7.5999999999999991e-05 1.9999999999999998e-05 5.1999999999999997e-05
928 1 1.5473037282595165e-06 1000 7.5999999999999991e-05 1.9999999999999998e-05 5.9999999999999995e-05
929 1 1.8829716390736825e-06 1000 7.5999999999999991e-05 1.9999999999999998e-05 6.7999999999999999e-05
930 1 1.1504413342537302e-06 1000 7.5999999999999991e-05 1.9999999999999998e-05 7.5999999999999991e-05
931 1 2.7469507039915797e-06 1000 7.5999999999999991e-05 2.8e-05 3.9999999999999998e-06
932 1 1.9236855526776641e-06 1000 7.5999999999999991e-05 2.8e-05 1.2e-05
933 1 1.4687879814828625e-06 1000 7.5999999999999991e-05 2.8e-05 1.9999999999999998e-05
934 1 2.7531954860322547e-06 1000 7.5999999999999991e-05 2.8e-05 2.8e-05
935 1 1.1516396505116009e-06 1000 7.5999999999999991e-05 2.8e-05 3.6000000000000001e-05
936 1 1.6557945448571283e-06 1000 7.5999999999999991e-05 2.8e-05 4.3999999999999999e-05
937 1 1.1565131841368545e-06 1000 7.5999999999999991e-05 2.8e-05 5.1999999999999997e-05
938 1 1.6742749015238879e-06 1000 7.5999999999999991e-05 2.8e-05 5.9999999999999995e-05
939 1 2.0785126065887932e-06 1000 7.5999999999999991e-05 2.8e-05 6.7999999999999999e-05
940 1 1.9198926848671108e-06 1000 7.5999999999999991e-05 2.8e-05 7.5999999999999991e-05
941 1 2.0592118054422275e-06 1000 7.5999999999999991e-05 3.6000000000000001e-05 3.9999999999999998e-06
942 1 2.0540075229223783e-06 1000 7.5999999999999991e-05 3.6000000000000001e-05 1.2e-05
943 1 3.1011154463918321e-06 1000 7.5999999999999991e-05 3.6000000000000001e-05 1.9999999999999998e-05
944 1 3.1836083245033405e-06 1000 7.5999999999999991e-05 3.6000000000000001e-05 2.8e-05
945 1 1.9823321300150411e-06 1000 7.5999999999999991e-05 3.6000000000000001e-05 3.6000000000000001e-05
946 1 2.5259493775311537e-06 1000 7.5999999999999991e-05 3.6000000000000001e-05 4.3999999999999999e-05
947 1 2.9570201495325931e-06 1000 7.5999999999999991e-05 3.6000000000000001e-05 5.1999999999999997e-05
948 1 2.4999760588787098e-06 1000 7.5999999999999991e-05 3.6000000000000001e-05 5.9999999999999995e-05
949 1 1.494055701088132e-06 1000 7.5999999999999991e-05 3.6000000000000001e-05 6.7999999999999999e-05
950 1 1.3539258494318184e-06 1000 7.5999999999999991e-05 3.6000000000000001e-05 7.5999999999999991e-05
951 1 2.9219613891012846e-06 1000 7.5999999999999991e-05 4.3999999999999999e-05 3.9999999999999998e-06
952 1 2.9411662841555936e-06 1000 7.5999999999999991e-05 4.3999999999999999e-05 1.2e-05
953 1 1.540586670879843e-06 1000 7.5999999999999991e-05 4.3999999999999999e-05 1.9999999999999998e-05
954 1 1.6320338229624851e-06 1000 7.5999999999999991e-05 4.3999999999999999e-05 2.8e-05
955 1 1.7842977821329135e-06 1000 7.5999999999999991e-05 4.3999999999999999e-05 3.6000000000000001e-05
956 1 3.2511645761218153e-06 1000 7.5999999999999991e-05 4.3999999999999999e-05 4.3999999999999999e-05
957 1 1.9940297045201007e-06 1000 7.5999999999999991e-05 4.3999999999999999e-05 5.1999999999999997e-05
958 1 2.9324126449119777e-06 1000 7.5999999999999991e-05 4.3999999999999999e-05 5.9999999999999995e-05
959 1 3.9034894643074966e-06 1000 7.5999999999999991e-05 4.3999999999999999e-05 6.7999999999999999e-05
960 1 1.7028339637629369e-06 1000 7.5999999999999991e-05 4.3999999999999999e-05 7.5999999999999991e-05
961 1 2.5037603162180124e-06 1000 7.5999999999999991e-05 5.1999999999999997e-05 3.9999999999999998e-06
962 1 2.0513274695523398e-06 1000 7.5999999999999991e-05 5.1999999999999997e-05 1.2e-05
963 1 1.5329310685422282e-06 1000 7.5999999999999991e-05 5.1999999999999997e-05 1.9999999999999998e-05
964 1 2.3497911860249561e-06 1000 7.5999999999999991e-05 5.1999999999999997e-05 2.8e-05
965 1 3.7759970989755712e-06 1000 7.5999999999999991e-05 5.1999999999999997e-05 3.6000000000000001e-05
966 1 2.5875882797826347e-06 1000 7.5999999999999991e-05 5.1999999999999997e-05 4.3999999999999999e-05
967 1 1.6402327834138357e-06 1000 7.5999999999999991e-05 5.1999999999999997e-05 5.1999999999999997e-05
968 1 1.6877590614105869e-06 1000 7.5999999999999991e-05 5.1999999999999997e-05 5.9999999999999995e-05
969 1 3.3711140329835254e-06 1000 7.5999999999999991e-05 5.1999999999999997e-05 6.7999999999999999e-05
970 1 1.8406692807631392e-06 1000 7.5999999999999991e-05 5.1999999999999997e-05 7.5999999999999991e-05
971 1 1.2835069789179971e-06 1000 7.5999999999999991e-05 5.9999999999999995e-05 3.9999999999999998e-06
972 1 1.8066594817375587e-06 1000 7.5999999999999991e-05 5.9999999999999995e-05 1.2e-05
973 1 3.1601297828590344e-06 1000 7.5999999999999991e-05 5.9999999999999995e-05 1.9999999999999998e-05
974 1 1.2520720502794449e-06 1000 7.5999999999999991e-05 5.9999999999999995e-05 2.8e-05
975 1 2.1468605670397372e-06 1000 7.5999999999999991e-05 5.9999999999999995e-05 3.6000000000000001e-05
976 1 3.2014615383075426e-06 1000 7.5999999999999991e-05 5.9999999999999995e-05 4.3999999999999999e-05
977 1 2.0137209289015713e-06 1000 7.5999999999999991e-05 5.9999999999999995e-05 5.1999999999999997e-05
978 1 4.4308511500357298e-06 1000 7.5999999999999991e-05 5.9999999999999995e-05 5.9999999999999995e-05
979 1 1.2447167857608278e-06 1000 7.5999999999999991e-05 5.9999999999999995e-05 6.7999999999999999e-05
980 1 3.2498275661850399e-06 1000 7.5999999999999991e-05 5.9999999999999995e-05 7.5999999999999991e-05
981 1 1.3255714155265731e-06 1000 7.5999999999999991e-05 6.7999999999999999e-05 3.9999999999999998e-06
982 1 1.0783105170463044e-06 1000 7.5999999999999991e-05 6.7999999999999999e-05 1.2e-05
983 1 1.3605637189313562e-06 1000 7.5999999999999991e-05 6.7999999999999999e-05 1.9999999999999998e-05
984 1 2.03353762745092e-06 1000 7.5999999999999991e-05 6.7999999999999999e-05 2.8e-05
985 1 2.5154976344053607e-06 1000 7.5999999999999991e-05 6.7999999999999999e-05 3.6000000000000001e-05
986 1 1.4932155526207649e-06 1000 7.5999999999999991e-05 6.7999999999999999e-05 4.3999999999999999e-05
987 1 1.7116102293532864e-06 1000 7.5999999999999991e-05 6.7999999999999999e-05 5.1999999999999997e-05
988 1 1.2321658610676658e-06 1000 7.5999999999999991e-05 6.7999999999999999e-05 5.9999999999999995e-05
989 1 2.2957789419133974e-06 1000 7.5999999999999991e-05 6.7999999999999999e-05 6.7999999999999999e-05
990 1 1.8602126980959374e-06 1000 7.5999999999999991e-05 6.7999999999999999e-05 7.5999999999999991e-05
991 1 1.9225359634362901e-06 1000 7.5999999999999991e-05 7.5999999999999991e-05 3.9999999999999998e-06
992 1 1.5371710309039424e-06 1000 7.5999999999999991e-05 7.5999999999999991e-05 1.2e-05
993 1 1.3205907183908499e-06 1000 7.5999999999999991e-05 7.5999999999999991e-05 1.9999999999999998e-05
994 1 1.4970541765518833e-06 1000 7.5999999999999991e-05 7.5999999999999991e-05 2.8e-05
995 1 2.5881747916588237e-06 1000 7.5999999999999991e-05 7.5999999999999991e-05 3.6000000000000001e-05
996 1 1.4055058968467051e-06 1000 7.5999999999999991e-05 7.5999999999999991e-05 4.3999999999999999e-05
997 1 3.439218284699425e-06 1000 7.5999999999999991e-05 7.5999999999999991e-05 5.1999999999999997e-05
998 1 2.3067683582161618e-06 1000 7.5999999999999991e-05 7.5999999999999991e-05 5.9999999999999995e-05
999 1 1.78785030348352e-06 1000 7.5999999999999991e-05 7.5999999999999991e-05 6.7999999999999999e-05
1000 1 1.3974340727075274e-06 1000 7.5999999999999991e-05 7.5999999999999991e-05 7.5999999999999991e-05

Velocities

1 0 0 0 0 0 0
2 0 0 0 0 0 0
3 0 0 0 0 0 0
4 0 0 0 0 0 0
5 0 0 0 0 0 0
6 0 0 0 0 0 0
7 0 0 0 0 0 0
8 0 0 0 0 0 0
9 0 0 0 0 0 0
10 0 0 0 0 0 0
11 0 0 0 0 0 0
12 0 0 0 0 0 0
13 0 0 0 0 0 0
14 0 0 0 0 0 0
15 0 0 0 0 0 0
16 0 0 0 0 0 0
17 0 0 0 0 0 0
18 0 0 0 0 0 0
19 0 0 0 0 0 0
20 0 0 0 0 0 0
21 0 0 0 0 0 0
22 0 0 0 0 0 0
23 0 0 0 0 0 0
24 0 0 0 0 0 0
25 0 0 0 0 0 0
26 0 0 0 0 0 0
27 0 0 0 0 0 0
28 0 0 0 0 0 0
29 0 0 0 0 0 0
30 0 0 0 0 0 0
31 0 0 0 0 0 0
32 0 0 0 0 0 0
33 0 0 0 0 0 0
34 0 0 0 0 0 0
35 0 0 0 0 0 0
36 0 0 0 0 0 0
37 0 0 0 0 0 0
38 0 0 0 0 0 0
39 0 0 0 0 0 0
40 0 0 0 0 0 0
41 0 0 0 0 0 0
42 0 0 0 0 0 0
43 0 0 0 0 0 0
44 0 0 0 0 0 0
45 0 0 0 0 0 0
46 0 0 0 0 0 0
47 0 0 0 0 0 0
48 0 0 0 0 0 0
49 0 0 0 0 0 0
50 0 0 0 0 0 0
51 0 0 0 0 0 0
52 0 0 0 0 0 0
53 0 0 0 0 0 0
54 0 0 0 0 0 0
55 0 0 0 0 0 0
56 0 0 0 0 0 0
57 0 0 0 0 0 0
58 0 0 0 0 0 0
59 0 0 0 0 0 0
60 0 0 0 0 0 0
61 0 0 0 0 0 0
62 0 0 0 0 0 0
63 0 0 0 0 0 0
64 0 0 0 0 0 0
65 0 0 0 0 0 0
66 0 0 0 0 0 0
67 0 0 0 0 0 0
68 0 0 0 0 0 0
69 0 0 0 0 0 0
70 0 0 0 0 0 0
71 0 0 0 0 0 0
72 0 0 0 0 0 0
73 0 0 0 0 0 0
74 0 0 0 0 0 0
75 0 0 0 0 0 0
76 0 0 0 0 0 0
77 0 0 0 0 0 0
78 0 0 0 0 0 0
79 0 0 0 0 0 0
80 0 0 0 0 0 0
81 0 0 0 0 0 0
82 0 0 0 0 0 0
83 0 0 0 0 0 0
84 0 0 0 0 0 0
85 0 0 0 0 0 0
86 0 0 0 0 0 0
87 0 0 0 0 0 0
88 0 0 0 0 0 0
89 0 0 0 0 0 0
90 0 0 0 0 0 0
91 0 0 0 0 0 0
92 0 0 0 0 0 0
93 0 0 0 0 0 0
94 0 0 0 0 0 0
95 0 0 0 0 0 0
96 0 0 0 0 0 0
97 0 0 0 0 0 0
98 0 0 0 0 0 0
99 0 0 0 0 0 0
100 0 0 0 0 0 0
101 0 0 0 0 0 0
102 0 0 0 0 0 0
103 0 0 0 0 0 0
104 0 0 0 0 0 0
105 0 0 0 0 0 0
106 0 0 0 0 0 0
107 0 0 0 0 0 0
108 0 0 0 0 0 0
109 0 0 0 0 0 0
110 0 0 0 0 0 0
111 0 0 0 0 0 0
112 0 0 0 0 0 0
113 0 0 0 0 0 0
114 0 0 0 0 0 0
115 0 0 0 0 0 0
116 0 0 0 0 0 0
117 0 0 0 0 0 0
118 0 0 0 0 0 0
119 0 0 0 0 0 0
120 0 0 0 0 0 0
121 0 0 0 0 0 0
122 0 0 0 0 0 0
123 0 0 0 0 0 0
124 0 0 0 0 0 0
125 0 0 0 0 0 0
126 0 0 0 0 0 0
127 0 0 0 0 0 0
128 0 0 0 0 0 0
129 0 0 0 0 0 0
130 0 0 0 0 0 0
131 0 0 0 0 0 0
132 0 0 0 0 0 0
133 0 0 0 0 0 0
134 0 0 0 0 0 0
135 0 0 0 0 0 0
136 0 0 0 0 0 0
137 0 0 0 0 0 0
138 0 0 0 0 0 0
139 0 0 0 0 0 0
140 0 0 0 0 0 0
141 0 0 0 0 0 0
142 0 0 0 0 0 0
143 0 0 0 0 0 0
144 0 0 0 0 0 0
145 0 0 0 0 0 0
146 0 0 0 0 0 0
147 0 0 0 0 0 0
148 0 0 0 0 0 0
149 0 0 0 0 0 0
150 0 0 0 0 0 0
151 0 0 0 0 0 0
152 0 0 0 0 0 0
153 0 0 0 0 0 0
154 0 0 0 0 0 0
155 0 0 0 0 0 0
156 0 0 0 0 0 0
157 0 0 0 0 0 0
158 0 0 0 0 0 0
159 0 0 0 0 0 0
160 0 0 0 0 0 0
161 0 0 0 0 0 0
162 0 0 0 0 0 0
163 0 0 0 0 0 0
164 0 0 0 0 0 0
165 0 0 0 0 0 0
166 0 0 0 0 0 0
167 0 0 0 0 0 0
168 0 0 0 0 0 0
169 0 0 0 0 0 0
170 0 0 0 0 0 0
171 0 0 0 0 0 0
172 0 0 0 0 0 0
173 0 0 0 0 0 0
174 0 0 0 0 0 0
175 0 0 0 0 0 0
176 0 0 0 0 0 0
177 0 0 0 0 0 0
178 0 0 0 0 0 0
179 0 0 0 0 0 0
180 0 0 0 0 0 0
181 0 0 0 0 0 0
182 0 0 0 0 0 0
183 0 0 0 0 0 0
184 0 0 0 0 0 0
185 0 0 0 0 0 0
186 0 0 0 0 0 0
187 0 0 0 0 0 0
188 0 0 0 0 0 0
189 0 0 0 0 0 0
190 0 0 0 0 0 0
191 0 0 0 0 0 0
192 0 0 0 0 0 0
193 0 0 0 0 0 0
194 0 0 0 0 0 0
195 0 0 0 0 0 0
196 0 0 0 0 0 0
197 0 0 0 0 0 0
198 0 0 0 0 0 0
199 0 0 0 0 0 0
200 0 0 0 0 0 0
201 0 0 0 0 0 0
202 0 0 0 0 0 0
203 0 0 0 0 0 0
204 0 0 0 0 0 0
205 0 0 0 0 0 0
206 0 0 0 0 0 0
207 0 0 0 0 0 0
208 0 0 0 0 0 0
209 0 0 0 0 0 0
210 0 0 0 0 0 0
211 0 0 0 0 0 0
212 0 0 0 0 0 0
213 0 0 0 0 0 0
214 0 0 0 0 0 0
215 0 0 0 0 0 0
216 0 0 0 0 0 0
217 0 0 0 0 0 0
218 0 0 0 0 0 0
219 0 0 0 0 0 0
220 0 0 0 0 0 0
221 0 0 0 0 0 0
222 0 0 0 0 0 0
223 0 0 0 0 0 0
224 0 0 0 0 0 0
225 0 0 0 0 0 0
226 0 0 0 0 0 0
227 0 0 0 0 0 0
228 0 0 0 0 0 0
229 0 0 0 0 0 0
230 0 0 0 0 0 0
231 0 0 0 0 0 0
232 0 0 0 0 0 0
233 0 0 0 0 0 0
234 0 0 0 0 0 0
235 0 0 0 0 0 0
236 0 0 0 0 0 0
237 0 0 0 0 0 0
238 0 0 0 0 0 0
239 0 0 0 0 0 0
240 0 0 0 0 0 0
241 0 0 0 0 0 0
242 0 0 0 0 0 0
243 0 0 0 0 0 0
244 0 0 0 0 0 0
245 0 0 0 0 0 0
246 0 0 0 0 0 0
247 0 0 0 0 0 0
248 0 0 0 0 0 0
249 0 0 0 0 0 0
250 0 0 0 0 0 0
251 0 0 0 0 0 0
252 0 0 0 0 0 0
253 0 0 0 0 0 0
254 0 0 0 0 0 0
255 0 0 0 0 0 0
256 0 0 0 0 0 0
257 0 0 0 0 0 0
258 0 0 0 0 0 0
259 0 0 0 0 0 0
260 0 0 0 0 0 0
261 0 0 0 0 0 0
262 0 0 0 0 0 0
263 0 0 0 0 0 0
264 0 0 0 0 0 0
265 0 0 0 0 0 0
266 0 0 0 0 0 0
267 0 0 0 0 0 0
268 0 0 0 0 0 0
269 0 0 0 0 0 0
270 0 0 0 0 0 0
271 0 0 0 0 0 0
272 0 0 0 0 0 0
273 0 0 0 0 0 0
274 0 0 0 0 0 0
275 0 0 0 0 0 0
276 0 0 0 0 0 0
277 0 0 0 0 0 0
278 0 0 0 0 0 0
279 0 0 0 0 0 0
280 0 0 0 0 0 0
281 0 0 0 0 0 0
282 0 0 0 0 0 0
283 0 0 0 0 0 0
284 0 0 0 0 0 0
285 0 0 0 0 0 0
286 0 0 0 0 0 0
287 0 0 0 0 0 0
288 0 0 0 0 0 0
289 0 0 0 0 0 0
290 0 0 0 0 0 0
291 0 0 0 0 0 0
292 0 0 0 0 0 0
293 0 0 0 0 0 0
294 0 0 0 0 0 0
295 0 0 0 0 0 0
296 0 0 0 0 0 0
297 0 0 0 0 0 0
298 0 0 0 0 0 0
299 0 0 0 0 0 0
300 0 0 0 0 0 0
301 0 0 0 0 0 0
302 0 0 0 0 0 0
303 0 0 0 0 0 0
304 0 0 0 0 0 0
305 0 0 0 0 0 0
306 0 0 0 0 0 0
307 0 0 0 0 0 0
308 0 0 0 0 0 0
309 0 0 0 0 0 0
310 0 0 0 0 0 0
311 0 0 0 0 0 0
312 0 0 0 0 0 0
313 0 0 0 0 0 0
314 0 0 0 0 0 0
315 0 0 0 0 0 0
316 0 0 0 0 0 0
317 0 0 0 0 0 0
318 0 0 0 0 0 0
319 0 0 0 0 0 0
320 0 0 0 0 0 0
321 0 0 0 0 0 0
322 0 0 0 0 0 0
323 0 0 0 0 0 0
324 0 0 0 0 0 0
325 0 0 0 0 0 0
326 0 0 0 0 0 0
327 0 0 0 0 0 0
328 0 0 0 0 0 0
329 0 0 0 0 0 0
330 0 0 0 0 0 0
331 0 0 0 0 0 0
332 0 0 0 0 0 0
333 0 0 0 0 0 0
334 0 0 0 0 0 0
335 0 0 0 0 0 0
336 0 0 0 0 0 0
337 0 0 0 0 0 0
338 0 0 0 0 0 0
339 0 0 0 0 0 0
340 0 0 0 0 0 0
341 0 0 0 0 0 0
342 0 0 0 0 0 0
343 0 0 0 0 0 0
344 0 0 0 0 0 0
345 0 0 0 0 0 0
346 0 0 0 0 0 0
347 0 0 0 0 0 0
348 0 0 0 0 0 0
349 0 0 0 0 0 0
350 0 0 0 0 0 0
351 0 0 0 0 0 0
352 0 0 0 0 0 0
353 0 0 0 0 0 0
354 0 0 0 0 0 0
355 0 0 0 0 0 0
356 0 0 0 0 0 0
357 0 0 0 0 0 0
358 0 0 0 0 0 0
359 0 0 0 0 0 0
360 0 0 0 0 0 0
361 0 0 0 0 0 0
362 0 0 0 0 0 0
363 0 0 0 0 0 0
364 0 0 0 0 0 0
365 0 0 0 0 0 0
366 0 0 0 0 0 0
367 0 0 0 0 0 0
368 0 0 0 0 0 0
369 0 0 0 0 0 0
370 0 0 0 0 0 0
371 0 0 0 0 0 0
372 0 0 0 0 0 0
373 0 0 0 0 0 0
374 0 0 0 0 0 0
375 0 0 0 0 0 0
376 0 0 0 0 0 0
377 0 0 0 0 0 0
378 0 0 0 0 0 0
379 0 0 0 0 0 0
380 0 0 0 0 0 0
381 0 0 0 0 0 0
382 0 0 0 0 0 0
383 0 0 0 0 0 0
384 0 0 0 0 0 0
385 0 0 0 0 0 0
386 0 0 0 0 0 0
387 0 0 0 0 0 0
388 0 0 0 0 0 0
389 0 0 0 0 0 0
390 0 0 0 0 0 0
391 0 0 0 0 0 0
392 0 0 0 0 0 0
393 0 0 0 0 0 0
394 0 0 0 0 0 0
395 0 0 0 0 0 0
396 0 0 0 0 0 0
397 0 0 0 0 0 0
398 0 0 0 0 0 0
399 0 0 0 0 0 0
400 0 0 0 0 0 0
401 0 0 0 0 0 0
402 0 0 0 0 0 0
403 0 0 0 0 0 0
404 0 0 0 0 0 0
405 0 0 0 0 0 0
406 0 0 0 0 0 0
407 0 0 0 0 0 0
408 0 0 0 0 0 0
409 0 0 0 0 0 0
410 0 0 0 0 0 0
411 0 0 0 0 0 0
412 0 0 0 0 0 0
413 0 0 0 0 0 0
414 0 0 0 0 0 0
415 0 0 0 0 0 0
416 0 0 0 0 0 0
417 0 0 0 0 0 0
418 0 0 0 0 0 0
419 0 0 0 0 0 0
420 0 0 0 0 0 0
421 0 0 0 0 0 0
422 0 0 0 0 0 0
423 0 0 0 0 0 0
424 0 0 0 0 0 0
425 0 0 0 0 0 0
426 0 0 0 0 0 0
427 0 0 0 0 0 0
428 0 0 0 0 0 0
429 0 0 0 0 0 0
430 0 0 0 0 0 0
431 0 0 0 0 0 0
432 0 0 0 0 0 0
433 0 0 0 0 0 0
434 0 0 0 0 0 0
435 0 0 0 0 0 0
436 0 0 0 0 0 0
437 0 0 0 0 0 0
438 0 0 0 0 0 0
439 0 0 0 0 0 0
440 0 0 0 0 0 0
441 0 0 0 0 0 0
442 0 0 0 0 0 0
443 0 0 0 0 0 0
444 0 0 0 0 0 0
445 0 0 0 0 0 0
446 0 0 0 0 0 0
447 0 0 0 0 0 0
448 0 0 0 0 0 0
449 0 0 0 0 0 0
450 0 0 0 0 0 0
451 0 0 0 0 0 0
452 0 0 0 0 0 0
453 0 0 0 0 0 0
454 0 0 0 0 0 0
455 0 0 0 0 0 0
456 0 0 0 0 0 0
457 0 0 0 0 0 0
458 0 0 0 0 0 0
459 0 0 0 0 0 0
460 0 0 0 0 0 0
461 0 0 0 0 0 0
462 0 0 0 0 0 0
463 0 0 0 0 0 0
464 0 0 0 0 0 0
465 0 0 0 0 0 0
466 0 0 0 0 0 0
467 0 0 0 0 0 0
468 0 0 0 0 0 0
469 0 0 0 0 0 0
470 0 0 0 0 0 0
471 0 0 0 0 0 0
472 0 0 0 0 0 0
473 0 0 0 0 0 0
474 0 0 0 0 0 0
475 0 0 0 0 0 0
476 0 0 0 0 0 0
477 0 0 0 0 0 0
478 0 0 0 0 0 0
479 0 0 0 0 0 0
480 0 0 0 0 0 0
481 0 0 0 0 0 0
482 0 0 0 0 0 0
483 0 0 0 0 0 0
484 0 0 0 0 0 0
485 0 0 0 0 0 0
486 0 0 0 0 0 0
487 0 0 0 0 0 0
488 0 0 0 0 0 0
489 0 0 0 0 0 0
490 0 0 0 0 0 0
491 0 0 0 0 0 0
492 0 0 0 0 0 0
493 0 0 0 0 0 0
494 0 0 0 0 0 0
495 0 0 0 0 0 0
496 0 0 0 0 0 0
497 0 0 0 0 0 0
498 0 0 0 0 0 0
499 0 0 0 0 0 0
500 0 0 0 0 0 0
501 0 0 0 0 0 0
502 0 0 0 0 0 0
503 0 0 0 0 0 0
504 0 0 0 0 0 0
505 0 0 0 0 0 0
506 0 0 0 0 0 0
507 0 0 0 0 0 0
508 0 0 0 0 0 0
509 0 0 0 0 0 0
510 0 0 0 0 0 0
511 0 0 0 0 0 0
512 0 0 0 0 0 0
513 0 0 0 0 0 0
514 0 0 0 0 0 0
515 0 0 0 0 0 0
516 0 0 0 0 0 0
517 0 0 0 0 0 0
518 0 0 0 0 0 0
519 0 0 0 0 0 0
520 0 0 0 0 0 0
521 0 0 0 0 0 0
522 0 0 0 0 0 0
523 0 0 0 0 0 0
524 0 0 0 0 0 0
525 0 0 0 0 0 0
526 0 0 0 0 0 0
527 0 0 0 0 0 0
528 0 0 0 0 0 0
529 0 0 0 0 0 0
530 0 0 0 0 0 0
531 0 0 0 0 0 0
532 0 0 0 0 0 0
533 0 0 0 0 0 0
534 0 0 0 0 0 0
535 0 0 0 0 0 0
536 0 0 0 0 0 0
537 0 0 0 0 0 0
538 0 0 0 0 0 0
539 0 0 0 0 0 0
540 0 0 0 0 0 0
541 0 0 0 0 0 0
542 0 0 0 0 0 0
543 0 0 0 0 0 0
544 0 0 0 0 0 0
545 0 0 0 0 0 0
546 0 0 0 0 0 0
547 0 0 0 0 0 0
548 0 0 0 0 0 0
549 0 0 0 0 0 0
550 0 0 0 0 0 0
551 0 0 0 0 0 0
552 0 0 0 0 0 0
553 0 0 0 0 0 0
554 0 0 0 0 0 0
555 0 0 0 0 0 0
556 0 0 0 0 0 0
557 0 0 0 0 0 0
558 0 0 0 0 0 0
559 0 0 0 0 0 0
560 0 0 0 0 0 0
561 0 0 0 0 0 0
562 0 0 0 0 0 0
563 0 0 0 0 0 0
564 0 0 0 0 0 0
565 0 0 0 0 0 0
566 0 0 0 0 0 0
567 0 0 0 0 0 0
568 0 0 0 0 0 0
569 0 0 0 0 0 0
570 0 0 0 0 0 0
571 0 0 0 0 0 0
572 0 0 0 0 0 0
573 0 0 0 0 0 0
574 0 0 0 0 0 0
575 0 0 0 0 0 0
576 0 0 0 0 0 0
577 0 0 0 0 0 0
578 0 0 0 0 0 0
579 0 0 0 0 0 0
580 0 0 0 0 0 0
581 0 0 0 0 0 0
582 0 0 0 0 0 0
583 0 0 0 0 0 0
584 0 0 0 0 0 0
585 0 0 0 0 0 0
586 0 0 0 0 0 0
587 0 0 0 0 0 0
588 0 0 0 0 0 0
589 0 0 0 0 0 0
590 0 0 0 0 0 0
591 0 0 0 0 0 0
592 0 0 0 0 0 0
593 0 0 0 0 0 0
594 0 0 0 0 0 0
595 0 0 0 0 0 0
596 0 0 0 0 0 0
597 0 0 0 0 0 0
598 0 0 0 0 0 0
599 0 0 0 0 0 0
600 0 0 0 0 0 0
601 0 0 0 0 0 0
602 0 0 0 0 0 0
603 0 0 0 0 0 0
604 0 0 0 0 0 0
605 0 0 0 0 0 0
606 0 0 0 0 0 0
607 0 0 0 0 0 0
608 0 0 0 0 0 0
609 0 0 0 0 0 0
610 0 0 0 0 0 0
611 0 0 0 0 0 0
612 0 0 0 0 0 0
613 0 0 0 0 0 0
614 0 0 0 0 0 0
615 0 0 0 0 0 0
616 0 0 0 0 0 0
617 0 0 0 0 0 0
618 0 0 0 0 0 0
619 0 0 0 0 0 0
620 0 0 0 0 0 0
621 0 0 0 0 0 0
622 0 0 0 0 0 0
623 0 0 0 0 0 0
624 0 0 0 0 0 0
625 0 0 0 0 0 0
626 0 0 0 0 0 0
627 0 0 0 0 0 0
628 0 0 0 0 0 0
629 0 0 0 0 0 0
630 0 0 0 0 0 0
631 0 0 0 0 0 0
632 0 0 0 0 0 0
633 0 0 0 0 0 0
634 0 0 0 0 0 0
635 0 0 0 0 0 0
636 0 0 0 0 0 0
637 0 0 0 0 0 0
638 0 0 0 0 0 0
639 0 0 0 0 0 0
640 0 0 0 0 0 0
641 0 0 0 0 0 0
642 0 0 0 0 0 0
643 0 0 0 0 0 0
644 0 0 0 0 0 0
645 0 0 0 0 0 0
646 0 0 0 0 0 0
647 0 0 0 0 0 0
648 0 0 0 0 0 0
649 0 0 0 0 0 0
650 0 0 0 0 0 0
651 0 0 0 0 0 0
652 0 0 0 0 0 0
653 0 0 0 0 0 0
654 0 0 0 0 0 0
655 0 0 0 0 0 0
656 0 0 0 0 0 0
657 0 0 0 0 0 0
658 0 0 0 0 0 0
659 0 0 0 0 0 0
660 0 0 0 0 0 0
661 0 0 0 0 0 0
662 0 0 0 0 0 0
663 0 0 0 0 0 0
664 0 0 0 0 0 0
665 0 0 0 0 0 0
666 0 0 0 0 0 0
667 0 0 0 0 0 0
668 0 0 0 0 0 0
669 0 0 0 0 0 0
670 0 0 0 0 0 0
671 0 0 0 0 0 0
672 0 0 0 0 0 0
673 0 0 0 0 0 0
674 0 0 0 0 0 0
675 0 0 0 0 0 0
676 0 0 0 0 0 0
677 0 0 0 0 0 0
678 0 0 0 0 0 0
679 0 0 0 0 0 0
680 0 0 0 0 0 0
681 0 0 0 0 0 0
682 0 0 0 0 0 0
683 0 0 0 0 0 0
684 0 0 0 0 0 0
685 0 0 0 0 0 0
686 0 0 0 0 0 0
687 0 0 0 0 0 0
688 0 0 0 0 0 0
689 0 0 0 0 0 0
690 0 0 0 0 0 0
691 0 0 0 0 0 0
692 0 0 0 0 0 0
693 0 0 0 0 0 0
694 0 0 0 0 0 0
695 0 0 0 0 0 0
696 0 0 0 0 0 0
697 0 0 0 0 0 0
698 0 0 0 0 0 0
699 0 0 0 0 0 0
700 0 0 0 0 0 0
701 0 0 0 0 0 0
702 0 0 0 0 0 0
703 0 0 0 0 0 0
704 0 0 0 0 0 0
705 0 0 0 0 0 0
706 0 0 0 0 0 0
707 0 0 0 0 0 0
708 0 0 0 0 0 0
709 0 0 0 0 0 0
710 0 0 0 0 0 0
711 0 0 0 0 0 0
712 0 0 0 0 0 0
713 0 0 0 0 0 0
714 0 0 0 0 0 0
715 0 0 0 0 0 0
716 0 0 0 0 0 0
717 0 0 0 0 0 0
718 0 0 0 0 0 0
719 0 0 0 0 0 0
720 0 0 0 0 0 0
721 0 0 0 0 0 0
722 0 0 0 0 0 0
723 0 0 0 0 0 0
724 0 0 0 0 0 0
725 0 0 0 0 0 0
726 0 0 0 0 0 0
727 0 0 0 0 0 0
728 0 0 0 0 0 0
729 0 0 0 0 0 0
730 0 0 0 0 0 0
731 0 0 0 0 0 0
732 0 0 0 0 0 0
733 0 0 0 0 0 0
734 0 0 0 0 0 0
735 0 0 0 0 0 0
736 0 0 0 0 0 0
737 0 0 0 0 0 0
738 0 0 0 0 0 0
739 0 0 0 0 0 0
740 0 0 0 0 0 0
741 0 0 0 0 0 0
742 0 0 0 0 0 0
743 0 0 0 0 0 0
744 0 0 0 0 0 0
745 0 0 0 0 0 0
746 0 0 0 0 0 0
747 0 0 0 0 0 0
748 0 0 0 0 0 0
749 0 0 0 0 0 0
750 0 0 0 0 0 0
751 0 0 0 0 0 0
752 0 0 0 0 0 0
753 0 0 0 0 0 0
754 0 0 0 0 0 0
755 0 0 0 0 0 0
756 0 0 0 0 0 0
757 0 0 0 0 0 0
758 0 0 0 0 0 0
759 0 0 0 0 0 0
760 0 0 0 0 0 0
761 0 0 0 0 0 0
762 0 0 0 0 0 0
763 0 0 0 0 0 0
764 0 0 0 0 0 0
765 0 0 0 0 0 0
766 0 0 0 0 0 0
767 0 0 0 0 0 0
768 0 0 0 0 0 0
769 0 0 0 0 0 0
770 0 0 0 0 0 0
771 0 0 0 0 0 0
772 0 0 0 0 0 0
773 0 0 0 0 0 0
774 0 0 0 0 0 0
775 0 0 0 0 0 0
776 0 0 0 0 0 0
777 0 0 0 0 0 0
778 0 0 0 0 0 0
779 0 0 0 0 0 0
780 0 0 0 0 0 0
781 0 0 0 0 0 0
782 0 0 0 0 0 0
783 0 0 0 0 0 0
784 0 0 0 0 0 0
785 0 0 0 0 0 0
786 0 0 0 0 0 0
787 0 0 0 0 0 0
788 0 0 0 0 0 0
789 0 0 0 0 0 0
790 0 0 0 0 0 0
791 0 0 0 0 0 0
792 0 0 0 0 0 0
793 0 0 0 0 0 0
794 0 0 0 0 0 0
795 0 0 0 0 0 0
796 0 0 0 0 0 0
797 0 0 0 0 0 0
798 0 0 0 0 0 0
799 0 0 0 0 0 0
800 0 0 0 0 0 0
801 0 0 0 0 0 0
802 0 0 0 0 0 0
803 0 0 0 0 0 0
804 0 0 0 0 0 0
805 0 0 0 0 0 0
806 0 0 0 0 0 0
807 0 0 0 0 0 0
808 0 0 0 0 0 0
809 0 0 0 0 0 0
810 0 0 0 0 0 0
811 0 0 0 0 0 0
812 0 0 0 0 0 0
813 0 0 0 0 0 0
814 0 0 0 0 0 0
815 0 0 0 0 0 0
816 0 0 0 0 0 0
817 0 0 0 0 0 0
818 0 0 0 0 0 0
819 0 0 0 0 0 0
820 0 0 0 0 0 0
821 0 0 0 0 0 0
822 0 0 0 0 0 0
823 0 0 0 0 0 0
824 0 0 0 0 0 0
825 0 0 0 0 0 0
826 0 0 0 0 0 0
827 0 0 0 0 0 0
828 0 0 0 0 0 0
829 0 0 0 0 0 0
830 0 0 0 0 0 0
831 0 0 0 0 0 0
832 0 0 0 0 0 0
833 0 0 0 0 0 0
834 0 0 0 0 0 0
835 0 0 0 0 0 0
836 0 0 0 0 0 0
837 0 0 0 0 0 0
838 0 0 0 0 0 0
839 0 0 0 0 0 0
840 0 0 0 0 0 0
841 0 0 0 0 0 0
842 0 0 0 0 0 0
843 0 0 0 0 0 0
844 0 0 0 0 0 0
845 0 0 0 0 0 0
846 0 0 0 0 0 0
847 0 0 0 0 0 0
848 0 0 0 0 0 0
849 0 0 0 0 0 0
850 0 0 0 0 0 0
851 0 0 0 0 0 0
852 0 0 0 0 0 0
853 0 0 0 0 0 0
854 0 0 0 0 0 0
855 0 0 0 0 0 0
856 0 0 0 0 0 0
857 0 0 0 0 0 0
858 0 0 0 0 0 0
859 0 0 0 0 0 0
860 0 0 0 0 0 0
861 0 0 0 0 0 0
862 0 0 0 0 0 0
863 0 0 0 0 0 0
864 0 0 0 0 0 0
865 0 0 0 0 0 0
866 0 0 0 0 0 0
867 0 0 0 0 0 0
868 0 0 0 0 0 0
869 0 0 0 0 0 0
870 0 0 0 0 0 0
871 0 0 0 0 0 0
872 0 0 0 0 0 0
873 0 0 0 0 0 0
874 0 0 0 0 0 0
875 0 0 0 0 0 0
876 0 0 0 0 0 0
877 0 0 0 0 0 0
878 0 0 0 0 0 0
879 0 0 0 0 0 0
880 0 0 0 0 0 0
881 0 0 0 0 0 0
882 0 0 0 0 0 0
883 0 0 0 0 0 0
884 0 0 0 0 0 0
885 0 0 0 0 0 0
886 0 0 0 0 0 0
887 0 0 0 0 0 0
888 0 0 0 0 0 0
889 0 0 0 0 0 0
890 0 0 0 0 0 0
891 0 0 0 0 0 0
892 0 0 0 0 0 0
893 0 0 0 0 0 0
894 0 0 0 0 0 0
895 0 0 0 0 0 0
896 0 0 0 0 0 0
897 0 0 0 0 0 0
898 0 0 0 0 0 0
899 0 0 0 0 0 0
900 0 0 0 0 0 0
901 0 0 0 0 0 0
902 0 0 0 0 0 0
903 0 0 0 0 0 0
904 0 0 0 0 0 0
905 0 0 0 0 0 0
906 0 0 0 0 0 0
907 0 0 0 0 0 0
908 0 0 0 0 0 0
909 0 0 0 0 0 0
910 0 0 0 0 0 0
911 0 0 0 0 0 0
912 0 0 0 0 0 0
913 0 0 0 0 0 0
914 0 0 0 0 0 0
915 0 0 0 0 0 0
916 0 0 0 0 0 0
917 0 0 0 0 0 0
918 0 0 0 0 0 0
919 0 0 0 0 0 0
920 0 0 0 0 0 0
921 0 0 0 0 0 0
922 0 0 0 0 0 0
923 0 0 0 0 0 0
924 0 0 0 0 0 0
925 0 0 0 0 0 0
926 0 0 0 0 0 0
927 0 0 0 0 0 0
928 0 0 0 0 0 0
929 0 0 0 0 0 0
930 0 0 0 0 0 0
931 0 0 0 0 0 0
932 0 0 0 0 0 0
933 0 0 0 0 0 0
934 0 0 0 0 0 0
935 0 0 0 0 0 0
936 0 0 0 0 0 0
937 0 0 0 0 0 0
938 0 0 0 0 0 0
939 0 0 0 0 0 0
940 0 0 0 0 0 0
941 0 0 0 0 0 0
942 0 0 0 0 0 0
943 0 0 0 0 0 0
944 0 0 0 0 0 0
945 0 0 0 0 0 0
946 0 0 0 0 0 0
947 0 0 0 0 0 0
948 0 0 0 0 0 0
949 0 0 0 0 0 0
950 0 0 0 0 0 0
951 0 0 0 0 0 0
952 0 0 0 0 0 0
953 0 0 0 0 0 0
954 0 0 0 0 0 0
955 0 0 0 0 0 0
956 0 0 0 0 0 0
957 0 0 0 0 0 0
958 0 0 0 0 0 0
959 0 0 0 0 0 0
960 0 0 0 0 0 0
961 0 0 0 0 0 0
962 0 0 0 0 0 0
963 0 0 0 0 0 0
964 0 0 0 0 0 0
965 0 0 0 0 0 0
966 0 0 0 0 0 0
967 0 0 0 0 0 0
968 0 0 0 0 0 0
969 0 0 0 0 0 0
970 0 0 0 0 0 0
971 0 0 0 0 0 0
972 0 0 0 0 0 0
973 0 0 0 0 0 0
974 0 0 0 0 0 0
975 0 0 0 0 0 0
976 0 0 0 0 0 0
977 0 0 0 0 0 0
978 0 0 0 0 0 0
979 0 0 0 0 0 0
980 0 0 0 0 0 0
981 0 0 0 0 0 0
982 0 0 0 0 0 0
983 0 0 0 0 0 0
984 0 0 0 0 0 0
985 0 0 0 0 0 0
986 0 0 0 0 0 0
987 0 0 0 0 0 0
988 0 0 0 0 0 0
989 0 0 0 0 0 0
990 0 0 0 0 0 0
991 0 0 0 0 0 0
992 0 0 0 0 0 0
993 0 0 0 0 0 0
994 0 0 0 0 0 0
995 0 0 0 0 0 0
996 0 0 0 0 0 0
997 0 0 0 0 0 0
998 0 0 0 0 0 0
999 0 0 0 0 0 0
1000 0 0 0 0 0 0
