LAMMPS (22 Jul 2025 - Update 6)
Reading data file ...
  orthogonal box = (-6.4e-05 -6.4e-05 -6.4e-05) to (6.4e-05 6.4e-05 6.4e-05)
  1 by 1 by 1 MPI processor grid
  reading atoms ...
  1 atoms
  reading velocities ...
  1 velocities
  read_data CPU = 0.001 seconds
Generated 0 of 0 mixed pair_coeff terms from geometric mixing rule
Neighbor list info ...
  update: every = 1 steps, delay = 0 steps, check = no
  max neighbors/atom: 2000, page size: 100000
  master list distance cutoff = 7e-06
  ghost atom cutoff = 7e-06
  binsize = 3.5e-06, bins = 37 37 37
  1 neighbor lists, perpetual/occasional/extra = 1 0 0
  (1) pair zero, perpetual
      attributes: half, newton off
      pair build: half/bin/atomonly/newtoff
      stencil: full/bin/3d
      bin: standard
Setting up Verlet run ...
  Unit style    : si
  Current step  : 0
  Time step     : 4.7012332740341915e-05
Per MPI rank memory allocation (min/avg/max) = 4.089 | 4.089 | 4.089 Mbytes
   Step        Atoms         Time     
         0           1  0
Loop time of 1.382e-06 on 1 procs for 0 steps with 1 atoms

72.4% CPU use with 1 MPI tasks x no OpenMP threads

MPI task timing breakdown:
Section |  min time  |  avg time  |  max time  |%varavg| %total
---------------------------------------------------------------
Pair    | 0          | 0          | 0          |   0.0 |  0.00
Neigh   | 0          | 0          | 0          |   0.0 |  0.00
Comm    | 0          | 0          | 0          |   0.0 |  0.00
Output  | 0          | 0          | 0          |   0.0 |  0.00
Modify  | 0          | 0          | 0          |   0.0 |  0.00
Other   |            | 1.382e-06  |            |       |100.00

Nlocal:              1 ave           1 max           1 min
Histogram: 1 0 0 0 0 0 0 0 0 0
Nghost:              0 ave           0 max           0 min
Histogram: 1 0 0 0 0 0 0 0 0 0
Neighs:              0 ave           0 max           0 min
Histogram: 1 0 0 0 0 0 0 0 0 0

Total # of neighbors = 0
Ave neighs/atom = 0
Neighbor list builds = 0
Dangerous builds not checked
Generated 0 of 0 mixed pair_coeff terms from geometric mixing rule
Setting up Verlet run ...
  Unit style    : si
  Current step  : 0
  Time step     : 4.7012332740341915e-05
Per MPI rank memory allocation (min/avg/max) = 4.089 | 4.089 | 4.089 Mbytes
   Step        Atoms         Time     
         0           1  0
        80           1  0.0037609866192273534
       160           1  0.0075219732384547069
       240           1  0.011282959857682059
       320           1  0.015043946476909414
       400           1  0.018804933096136765
       480           1  0.022565919715364119
       560           1  0.026326906334591473
       640           1  0.030087892953818828
       720           1  0.033848879573046178
       800           1  0.037609866192273529
Loop time of 0.0271256 on 1 procs for 800 steps with 1 atoms

100.0% CPU use with 1 MPI tasks x no OpenMP threads

MPI task timing breakdown:
Section |  min time  |  avg time  |  max time  |%varavg| %total
---------------------------------------------------------------
Pair    | 3.7497e-05 | 3.7497e-05 | 3.7497e-05 |   0.0 |  0.14
Neigh   | 0.024143   | 0.024143   | 0.024143   |   0.0 | 89.01
Comm    | 0.00021041 | 0.00021041 | 0.00021041 |   0.0 |  0.78
Output  | 4.1501e-05 | 4.1501e-05 | 4.1501e-05 |   0.0 |  0.15
Modify  | 0.0025552  | 0.0025552  | 0.0025552  |   0.0 |  9.42
Other   |            | 0.0001378  |            |       |  0.51

Nlocal:              1 ave           1 max           1 min
Histogram: 1 0 0 0 0 0 0 0 0 0
Nghost:              0 ave           0 max           0 min
Histogram: 1 0 0 0 0 0 0 0 0 0
Neighs:              0 ave           0 max           0 min
Histogram: 1 0 0 0 0 0 0 0 0 0

Total # of neighbors = 0
Ave neighs/atom = 0
Neighbor list builds = 800
Dangerous builds not checked
PASSIVE_CASE_COMPLETED
Total wall time: 0:00:00
