LAMMPS (2 Sep 2026)
Reading data file ...
  orthogonal box = (-4e-05 -4e-05 -4e-05) to (4e-05 4e-05 4e-05)
  1 by 1 by 1 MPI processor grid
  reading atoms ...
  1000 atoms
  reading velocities ...
  1000 velocities
  read_data CPU = 0.004 seconds
Generated 0 of 0 mixed pair_coeff terms from geometric mixing rule
Neighbor list info ...
  update: every = 1 steps, delay = 0 steps, check = no
  max neighbors/atom: 2000, page size: 100000
  master list distance cutoff = 7e-06
  ghost atom cutoff = 7e-06
  binsize = 3.5e-06, bins = 23 23 23
  1 neighbor lists, perpetual/occasional/extra = 1 0 0
  (1) pair zero, perpetual
      attributes: half, newton off
      pair build: half/bin/atomonly/newtoff
      stencil: full/bin/3d
      bin: standard
Setting up Verlet run ...
  Unit style    : si
  Current step  : 0
  Time step     : 6.249999999999999e-11
Per MPI rank memory allocation (min/avg/max) = 3.927 | 3.927 | 3.927 Mbytes
   Step        Atoms         Time          KinEng    
         0        1000  0 0
Loop time of 8.82e-07 on 1 procs for 0 steps with 1000 atoms

113.4% CPU use with 1 MPI tasks x no OpenMP threads

MPI task timing breakdown:
Section |  min time  |  avg time  |  max time  |%varavg| %total
---------------------------------------------------------------
Pair    | 0          | 0          | 0          |   0.0 |  0.00
Neigh   | 0          | 0          | 0          |   0.0 |  0.00
Comm    | 0          | 0          | 0          |   0.0 |  0.00
Output  | 0          | 0          | 0          |   0.0 |  0.00
Modify  | 0          | 0          | 0          |   0.0 |  0.00
Other   |            | 8.82e-07   |            |       |100.00

Nlocal:           1000 ave        1000 max        1000 min
Histogram: 1 0 0 0 0 0 0 0 0 0
Nghost:            728 ave         728 max         728 min
Histogram: 1 0 0 0 0 0 0 0 0 0
Neighs:              0 ave           0 max           0 min
Histogram: 1 0 0 0 0 0 0 0 0 0

Total # of neighbors = 0
Ave neighs/atom = 0
Neighbor list builds = 0
Dangerous builds not checked
Generated 0 of 0 mixed pair_coeff terms from geometric mixing rule
Setting up Verlet run ...
  Unit style    : si
  Current step  : 0
  Time step     : 6.249999999999999e-11
Per MPI rank memory allocation (min/avg/max) = 3.927 | 3.927 | 3.927 Mbytes
   Step        Atoms         Time          KinEng    
         0        1000  0 0
       100        1000  6.2499999999999989e-09 1.9215579265142224e-21
       200        1000  1.2499999999999998e-08 7.3847918323083074e-21
       300        1000  1.8749999999999996e-08 1.5977891113332782e-20
       400        1000  2.4999999999999996e-08 2.7337080573269704e-20
       500        1000  3.1249999999999999e-08 4.1140305848856138e-20
       600        1000  3.7499999999999992e-08 5.7101855488047093e-20
       700        1000  4.3749999999999991e-08 7.4967766215308749e-20
       800        1000  4.9999999999999991e-08 9.4511885054043022e-20
       900        1000  5.6249999999999991e-08 1.155324840323381e-19
      1000        1000  6.2499999999999997e-08 1.378493411672909e-19
Loop time of 1.07758 on 1 procs for 1000 steps with 1000 atoms

99.7% CPU use with 1 MPI tasks x no OpenMP threads

MPI task timing breakdown:
Section |  min time  |  avg time  |  max time  |%varavg| %total
---------------------------------------------------------------
Pair    | 4.878e-05  | 4.878e-05  | 4.878e-05  |   0.0 |  0.00
Neigh   | 0.11586    | 0.11586    | 0.11586    |   0.0 | 10.75
Comm    | 0.012077   | 0.012077   | 0.012077   |   0.0 |  1.12
Output  | 8.1173e-05 | 8.1173e-05 | 8.1173e-05 |   0.0 |  0.01
Modify  | 0.94663    | 0.94663    | 0.94663    |   0.0 | 87.85
Other   |            | 0.002887   |            |       |  0.27

Nlocal:           1000 ave        1000 max        1000 min
Histogram: 1 0 0 0 0 0 0 0 0 0
Nghost:            728 ave         728 max         728 min
Histogram: 1 0 0 0 0 0 0 0 0 0
Neighs:              0 ave           0 max           0 min
Histogram: 1 0 0 0 0 0 0 0 0 0

Total # of neighbors = 0
Ave neighs/atom = 0
Neighbor list builds = 1000
Dangerous builds not checked
COUPLING_CASE_COMPLETED
Total wall time: 0:00:01
