ITEM: TIMESTEP
41130
ITEM: NUMBER OF ATOMS
1
ITEM: BOX BOUNDS pp pp pp
-4.0000000000000003e-05 4.0000000000000003e-05
-4.0000000000000003e-05 4.0000000000000003e-05
-4.0000000000000003e-05 4.0000000000000003e-05
ITEM: ATOMS id diameter mass xu yu zu vx vy vz fx fy fz
1 3.0420644636030134e-06 1.4740216447741648e-14 2.0599991342320653e-09 -4.1199982684641573e-10 6.1799974026962295e-10 0.00099326444199520085 -0.00019865288839904268 0.0002979793325985614 1.9312545479803275e-13 -3.8625090959535521e-14 5.793763643937283e-14
