LAMMPS (22 Jul 2025 - Update 6)
Reading data file ...
  orthogonal box = (-4e-05 -4e-05 -4e-05) to (4e-05 4e-05 4e-05)
  1 by 1 by 1 MPI processor grid
  reading atoms ...
  1 atoms
  reading velocities ...
  1 velocities
  read_data CPU = 0.000 seconds
Generated 0 of 0 mixed pair_coeff terms from geometric mixing rule
Neighbor list info ...
  update: every = 1 steps, delay = 0 steps, check = no
  max neighbors/atom: 2000, page size: 100000
  master list distance cutoff = 7e-06
  ghost atom cutoff = 7e-06
  binsize = 3.5e-06, bins = 23 23 23
  1 neighbor lists, perpetual/occasional/extra = 1 0 0
  (1) pair zero, perpetual
      attributes: half, newton off
      pair build: half/bin/atomonly/newtoff
      stencil: full/bin/3d
      bin: standard
Setting up Verlet run ...
  Unit style    : si
  Current step  : 0
  Time step     : 6.249999999999999e-11
Per MPI rank memory allocation (min/avg/max) = 3.89 | 3.89 | 3.89 Mbytes
   Step        Atoms         Time          KinEng    
         0           1  0 0
Loop time of 8.52e-07 on 1 procs for 0 steps with 1 atoms

0.0% CPU use with 1 MPI tasks x no OpenMP threads

MPI task timing breakdown:
Section |  min time  |  avg time  |  max time  |%varavg| %total
---------------------------------------------------------------
Pair    | 0          | 0          | 0          |   0.0 |  0.00
Neigh   | 0          | 0          | 0          |   0.0 |  0.00
Comm    | 0          | 0          | 0          |   0.0 |  0.00
Output  | 0          | 0          | 0          |   0.0 |  0.00
Modify  | 0          | 0          | 0          |   0.0 |  0.00
Other   |            | 8.52e-07   |            |       |100.00

Nlocal:              1 ave           1 max           1 min
Histogram: 1 0 0 0 0 0 0 0 0 0
Nghost:              0 ave           0 max           0 min
Histogram: 1 0 0 0 0 0 0 0 0 0
Neighs:              0 ave           0 max           0 min
Histogram: 1 0 0 0 0 0 0 0 0 0

Total # of neighbors = 0
Ave neighs/atom = 0
Neighbor list builds = 0
Dangerous builds not checked
Generated 0 of 0 mixed pair_coeff terms from geometric mixing rule
Setting up Verlet run ...
  Unit style    : si
  Current step  : 0
  Time step     : 6.249999999999999e-11
Per MPI rank memory allocation (min/avg/max) = 3.89 | 3.89 | 3.89 Mbytes
   Step        Atoms         Time          KinEng    
         0           1  0 0
      4113           1  2.5706249999999996e-07 0
      8226           1  5.1412499999999993e-07 0
     12339           1  7.7118749999999989e-07 0
     16452           1  1.0282499999999999e-06 0
     20565           1  1.2853124999999998e-06 0
     24678           1  1.5423749999999998e-06 0
     28791           1  1.7994374999999997e-06 0
     32904           1  2.0564999999999997e-06 0
     37017           1  2.3135624999999997e-06 0
     41130           1  2.5706249999999996e-06 0
Loop time of 0.438918 on 1 procs for 41130 steps with 1 atoms

99.5% CPU use with 1 MPI tasks x no OpenMP threads

MPI task timing breakdown:
Section |  min time  |  avg time  |  max time  |%varavg| %total
---------------------------------------------------------------
Pair    | 0.0010943  | 0.0010943  | 0.0010943  |   0.0 |  0.25
Neigh   | 0.24378    | 0.24378    | 0.24378    |   0.0 | 55.54
Comm    | 0.0065935  | 0.0065935  | 0.0065935  |   0.0 |  1.50
Output  | 4.5996e-05 | 4.5996e-05 | 4.5996e-05 |   0.0 |  0.01
Modify  | 0.18354    | 0.18354    | 0.18354    |   0.0 | 41.82
Other   |            | 0.003857   |            |       |  0.88

Nlocal:              1 ave           1 max           1 min
Histogram: 1 0 0 0 0 0 0 0 0 0
Nghost:              0 ave           0 max           0 min
Histogram: 1 0 0 0 0 0 0 0 0 0
Neighs:              0 ave           0 max           0 min
Histogram: 1 0 0 0 0 0 0 0 0 0

Total # of neighbors = 0
Ave neighs/atom = 0
Neighbor list builds = 41130
Dangerous builds not checked
COUPLING_CASE_COMPLETED
Total wall time: 0:00:00
