ITEM: TIMESTEP
800
ITEM: NUMBER OF ATOMS
1000
ITEM: BOX BOUNDS pp pp pp
-6.3999999999999997e-05 6.3999999999999997e-05
-6.3999999999999997e-05 6.3999999999999997e-05
-6.3999999999999997e-05 6.3999999999999997e-05
ITEM: ATOMS id diameter xu yu zu vx vy vz
1 2.740324769933979e-06 1.609866192273609e-06 -4.352197323845654e-05 -2.4717040142317903e-05 0.001 -0.00019999999999999998 0.00029999999999999997
2 2.6936311703938353e-06 1.609866192273609e-06 -4.352197323845654e-05 -1.6717040142317905e-05 0.001 -0.00020000000000000001 0.00029999999999999997
3 2.1286523712880871e-06 1.609866192273609e-06 -4.352197323845654e-05 -8.7170401423179074e-06 0.001 -0.00020000000000000001 0.00029999999999999997
4 2.5741216597356536e-06 1.609866192273609e-06 -4.352197323845654e-05 -7.1704014231790608e-07 0.001 -0.00020000000000000001 0.00029999999999999997
5 3.6555570657343003e-06 1.609866192273609e-06 -4.352197323845654e-05 7.282959857682091e-06 0.001 -0.00020000000000000001 0.00029999999999999997
6 1.6272198777928786e-06 1.609866192273609e-06 -4.352197323845654e-05 1.5282959857682093e-05 0.001 -0.00019999999999999998 0.00030000000000000003
7 1.8952167545334519e-06 1.609866192273609e-06 -4.352197323845654e-05 2.3282959857682091e-05 0.001 -0.00020000000000000001 0.00029999999999999997
8 1.3713092917874881e-06 1.609866192273609e-06 -4.352197323845654e-05 3.1282959857682089e-05 0.001 -0.00020000000000000004 0.00030000000000000003
9 2.9605956059313874e-06 1.609866192273609e-06 -4.352197323845654e-05 3.9282959857682094e-05 0.001 -0.00020000000000000001 0.00029999999999999997
10 2.0609365489400647e-06 1.609866192273609e-06 -4.352197323845654e-05 4.7282959857682085e-05 0.001 -0.00020000000000000001 0.00029999999999999997
11 1.9485010141989932e-06 1.609866192273609e-06 -3.5521973238455634e-05 -2.4717040142317903e-05 0.001 -0.00020000000000000001 0.00029999999999999992
12 3.2044200129453844e-06 1.609866192273609e-06 -3.5521973238455634e-05 -1.6717040142317905e-05 0.001 -0.00019999999999999998 0.00029999999999999997
13 2.9263892476989679e-06 1.609866192273609e-06 -3.5521973238455634e-05 -8.7170401423179074e-06 0.001 -0.00019999999999999998 0.00029999999999999997
14 1.3388463114377205e-06 1.609866192273609e-06 -3.5521973238455634e-05 -7.1704014231790608e-07 0.001 -0.00019999999999999998 0.00029999999999999997
15 1.7639020021844961e-06 1.609866192273609e-06 -3.5521973238455634e-05 7.282959857682091e-06 0.001 -0.00019999999999999998 0.00029999999999999997
16 1.4817751935303172e-06 1.609866192273609e-06 -3.5521973238455634e-05 1.5282959857682093e-05 0.001 -0.00020000000000000001 0.00030000000000000003
17 1.9286285161159636e-06 1.609866192273609e-06 -3.5521973238455634e-05 2.3282959857682091e-05 0.001 -0.00019999999999999998 0.00029999999999999997
18 3.2161629946311912e-06 1.609866192273609e-06 -3.5521973238455634e-05 3.1282959857682089e-05 0.001 -0.00020000000000000001 0.00029999999999999997
19 1.734144515451206e-06 1.609866192273609e-06 -3.5521973238455634e-05 3.9282959857682094e-05 0.001 -0.00019999999999999998 0.00029999999999999997
20 2.1153033354028699e-06 1.609866192273609e-06 -3.5521973238455634e-05 4.7282959857682085e-05 0.001 -0.00019999999999999998 0.00029999999999999997
21 2.204486583212623e-06 1.609866192273609e-06 -2.7521973238453833e-05 -2.4717040142317903e-05 0.001 -0.00020000000000000001 0.00029999999999999997
22 2.3846240901226245e-06 1.609866192273609e-06 -2.7521973238453833e-05 -1.6717040142317905e-05 0.0009999999999999998 -0.00019999999999999998 0.00029999999999999997
23 2.3299921255766743e-06 1.609866192273609e-06 -2.7521973238453833e-05 -8.7170401423179074e-06 0.0009999999999999998 -0.00019999999999999998 0.00029999999999999997
24 3.0927352280443603e-06 1.609866192273609e-06 -2.7521973238453833e-05 -7.1704014231790608e-07 0.0009999999999999998 -0.00019999999999999998 0.00029999999999999997
25 1.0593935157994196e-06 1.609866192273609e-06 -2.7521973238453833e-05 7.282959857682091e-06 0.0009999999999999998 -0.00019999999999999998 0.00029999999999999997
26 2.1616500212331732e-06 1.609866192273609e-06 -2.7521973238453833e-05 1.5282959857682093e-05 0.001 -0.00020000000000000004 0.00029999999999999997
27 1.4962493311626338e-06 1.609866192273609e-06 -2.7521973238453833e-05 2.3282959857682091e-05 0.0009999999999999998 -0.00019999999999999998 0.00029999999999999997
28 1.4851871319025939e-06 1.609866192273609e-06 -2.7521973238453833e-05 3.1282959857682089e-05 0.001 -0.00020000000000000001 0.00029999999999999997
29 1.9730642614923693e-06 1.609866192273609e-06 -2.7521973238453833e-05 3.9282959857682094e-05 0.0009999999999999998 -0.00019999999999999998 0.00029999999999999997
30 1.8895456820229518e-06 1.609866192273609e-06 -2.7521973238453833e-05 4.7282959857682085e-05 0.0009999999999999998 -0.00019999999999999998 0.00029999999999999997
31 1.9602902000934207e-06 1.609866192273609e-06 -1.9521973238454418e-05 -2.4717040142317903e-05 0.001 -0.00020000000000000001 0.00029999999999999997
32 1.2934356200299047e-06 1.609866192273609e-06 -1.9521973238454418e-05 -1.6717040142317905e-05 0.001 -0.00019999999999999998 0.00029999999999999997
33 1.3854470759790099e-06 1.609866192273609e-06 -1.9521973238454418e-05 -8.7170401423179074e-06 0.001 -0.00019999999999999998 0.00029999999999999997
34 1.2767997965853246e-06 1.609866192273609e-06 -1.9521973238454418e-05 -7.1704014231790608e-07 0.001 -0.00019999999999999998 0.00029999999999999997
35 1.1075272902060542e-06 1.609866192273609e-06 -1.9521973238454418e-05 7.282959857682091e-06 0.001 -0.00019999999999999998 0.00029999999999999997
36 2.1365687172198431e-06 1.609866192273609e-06 -1.9521973238454418e-05 1.5282959857682093e-05 0.001 -0.00020000000000000001 0.00029999999999999997
37 2.7126786356574288e-06 1.609866192273609e-06 -1.9521973238454418e-05 2.3282959857682091e-05 0.001 -0.00019999999999999998 0.00029999999999999997
38 2.3563348156711546e-06 1.609866192273609e-06 -1.9521973238454418e-05 3.1282959857682089e-05 0.001 -0.00019999999999999998 0.00029999999999999997
39 1.5776143132376809e-06 1.609866192273609e-06 -1.9521973238454418e-05 3.9282959857682094e-05 0.001 -0.00019999999999999998 0.00029999999999999997
40 2.0872847254230712e-06 1.609866192273609e-06 -1.9521973238454418e-05 4.7282959857682085e-05 0.001 -0.00019999999999999998 0.00029999999999999997
41 3.4793310812504849e-06 1.609866192273609e-06 -1.1521973238454859e-05 -2.4717040142317903e-05 0.0010000000000000002 -0.00020000000000000004 0.00029999999999999997
42 3.0603780037653581e-06 1.609866192273609e-06 -1.1521973238454859e-05 -1.6717040142317905e-05 0.001 -0.00019999999999999998 0.00029999999999999992
43 2.8384352093221757e-06 1.609866192273609e-06 -1.1521973238454859e-05 -8.7170401423179074e-06 0.001 -0.00019999999999999998 0.00029999999999999992
44 2.0731794128214773e-06 1.609866192273609e-06 -1.1521973238454859e-05 -7.1704014231790608e-07 0.001 -0.00019999999999999998 0.00029999999999999992
45 2.8809201486806668e-06 1.609866192273609e-06 -1.1521973238454859e-05 7.282959857682091e-06 0.001 -0.00019999999999999998 0.00029999999999999992
46 1.4537636188372708e-06 1.609866192273609e-06 -1.1521973238454859e-05 1.5282959857682093e-05 0.001 -0.00020000000000000001 0.00029999999999999997
47 1.2377624540039944e-06 1.609866192273609e-06 -1.1521973238454859e-05 2.3282959857682091e-05 0.001 -0.00019999999999999998 0.00029999999999999992
48 1.6701368356563758e-06 1.609866192273609e-06 -1.1521973238454859e-05 3.1282959857682089e-05 0.001 -0.00020000000000000001 0.00029999999999999997
49 1.7687025746947867e-06 1.609866192273609e-06 -1.1521973238454859e-05 3.9282959857682094e-05 0.001 -0.00019999999999999998 0.00029999999999999992
50 1.685040519930315e-06 1.609866192273609e-06 -1.1521973238454859e-05 4.7282959857682085e-05 0.001 -0.00019999999999999998 0.00029999999999999992
51 1.5839431403208904e-06 1.609866192273609e-06 -3.5219732384547597e-06 -2.4717040142317903e-05 0.001 -0.00020000000000000001 0.00029999999999999997
52 2.1688800638050217e-06 1.609866192273609e-06 -3.5219732384547597e-06 -1.6717040142317905e-05 0.001 -0.00019999999999999998 0.00029999999999999997
53 1.9851560214274476e-06 1.609866192273609e-06 -3.5219732384547597e-06 -8.7170401423179074e-06 0.001 -0.00019999999999999998 0.00029999999999999997
54 2.4740779046458627e-06 1.609866192273609e-06 -3.5219732384547597e-06 -7.1704014231790608e-07 0.001 -0.00019999999999999998 0.00029999999999999997
55 1.4174350002402288e-06 1.609866192273609e-06 -3.5219732384547597e-06 7.282959857682091e-06 0.001 -0.00019999999999999998 0.00029999999999999997
56 1.8669504303433175e-06 1.609866192273609e-06 -3.5219732384547597e-06 1.5282959857682093e-05 0.001 -0.00019999999999999998 0.00029999999999999997
57 1.5735077442562152e-06 1.609866192273609e-06 -3.5219732384547597e-06 2.3282959857682091e-05 0.001 -0.00019999999999999998 0.00029999999999999997
58 2.393333513590096e-06 1.609866192273609e-06 -3.5219732384547597e-06 3.1282959857682089e-05 0.001 -0.00020000000000000001 0.00030000000000000003
59 1.7025492116177103e-06 1.609866192273609e-06 -3.5219732384547597e-06 3.9282959857682094e-05 0.001 -0.00019999999999999998 0.00029999999999999997
60 3.3641532770981509e-06 1.609866192273609e-06 -3.5219732384547597e-06 4.7282959857682085e-05 0.001 -0.00019999999999999998 0.00029999999999999997
61 1.514759934685774e-06 1.609866192273609e-06 4.4780267615450946e-06 -2.4717040142317903e-05 0.0009999999999999998 -0.00020000000000000001 0.00029999999999999997
62 2.5906476806392701e-06 1.609866192273609e-06 4.4780267615450946e-06 -1.6717040142317905e-05 0.001 -0.00019999999999999998 0.00029999999999999997
63 1.9199491642498053e-06 1.609866192273609e-06 4.4780267615450946e-06 -8.7170401423179074e-06 0.001 -0.00019999999999999998 0.00029999999999999997
64 2.1652609447710753e-06 1.609866192273609e-06 4.4780267615450946e-06 -7.1704014231790608e-07 0.001 -0.00019999999999999998 0.00029999999999999997
65 2.1797029036078678e-06 1.609866192273609e-06 4.4780267615450946e-06 7.282959857682091e-06 0.001 -0.00019999999999999998 0.00029999999999999997
66 2.6561938441593868e-06 1.609866192273609e-06 4.4780267615450946e-06 1.5282959857682093e-05 0.001 -0.00020000000000000004 0.00030000000000000003
67 1.9566187389903785e-06 1.609866192273609e-06 4.4780267615450946e-06 2.3282959857682091e-05 0.001 -0.00019999999999999998 0.00029999999999999997
68 3.3801285200403236e-06 1.609866192273609e-06 4.4780267615450946e-06 3.1282959857682089e-05 0.001 -0.00020000000000000001 0.00029999999999999992
69 1.8162020938322693e-06 1.609866192273609e-06 4.4780267615450946e-06 3.9282959857682094e-05 0.001 -0.00019999999999999998 0.00029999999999999997
70 1.2235107953363044e-06 1.609866192273609e-06 4.4780267615450946e-06 4.7282959857682085e-05 0.001 -0.00019999999999999998 0.00029999999999999997
71 1.8382637901275547e-06 1.609866192273609e-06 1.2478026761545662e-05 -2.4717040142317903e-05 0.001 -0.00020000000000000001 0.00029999999999999997
72 1.5995203314888816e-06 1.609866192273609e-06 1.2478026761545662e-05 -1.6717040142317905e-05 0.001 -0.00020000000000000001 0.00029999999999999997
73 4.154773787385502e-06 1.609866192273609e-06 1.2478026761545662e-05 -8.7170401423179074e-06 0.001 -0.00020000000000000001 0.00029999999999999997
74 1.6690638902636169e-06 1.609866192273609e-06 1.2478026761545662e-05 -7.1704014231790608e-07 0.001 -0.00020000000000000001 0.00029999999999999997
75 1.7523704160827941e-06 1.609866192273609e-06 1.2478026761545662e-05 7.282959857682091e-06 0.001 -0.00020000000000000001 0.00029999999999999997
76 1.5417723290443512e-06 1.609866192273609e-06 1.2478026761545662e-05 1.5282959857682093e-05 0.001 -0.00020000000000000004 0.00030000000000000003
77 2.1538998123275273e-06 1.609866192273609e-06 1.2478026761545662e-05 2.3282959857682091e-05 0.001 -0.00020000000000000001 0.00029999999999999997
78 1.2654444232196855e-06 1.609866192273609e-06 1.2478026761545662e-05 3.1282959857682089e-05 0.001 -0.00020000000000000001 0.00029999999999999992
79 1.1714364288964666e-06 1.609866192273609e-06 1.2478026761545662e-05 3.9282959857682094e-05 0.001 -0.00020000000000000001 0.00029999999999999997
80 1.1993418185008198e-06 1.609866192273609e-06 1.2478026761545662e-05 4.7282959857682085e-05 0.001 -0.00020000000000000001 0.00029999999999999997
81 3.8106983799035905e-06 1.609866192273609e-06 2.0478026761546168e-05 -2.4717040142317903e-05 0.001 -0.00020000000000000001 0.00029999999999999997
82 1.1635837369328247e-06 1.609866192273609e-06 2.0478026761546168e-05 -1.6717040142317905e-05 0.0009999999999999998 -0.00019999999999999998 0.00029999999999999997
83 1.4331357716413832e-06 1.609866192273609e-06 2.0478026761546168e-05 -8.7170401423179074e-06 0.0009999999999999998 -0.00019999999999999998 0.00029999999999999997
84 1.6275546289841579e-06 1.609866192273609e-06 2.0478026761546168e-05 -7.1704014231790608e-07 0.0009999999999999998 -0.00019999999999999998 0.00029999999999999997
85 2.004923733209155e-06 1.609866192273609e-06 2.0478026761546168e-05 7.282959857682091e-06 0.0009999999999999998 -0.00019999999999999998 0.00029999999999999997
86 2.9297368504565501e-06 1.609866192273609e-06 2.0478026761546168e-05 1.5282959857682093e-05 0.001 -0.00020000000000000004 0.00029999999999999997
87 3.5335993878908385e-06 1.609866192273609e-06 2.0478026761546168e-05 2.3282959857682091e-05 0.0009999999999999998 -0.00019999999999999998 0.00029999999999999997
88 3.6975732920717971e-06 1.609866192273609e-06 2.0478026761546168e-05 3.1282959857682089e-05 0.001 -0.00020000000000000001 0.00029999999999999997
89 1.4381412731636183e-06 1.609866192273609e-06 2.0478026761546168e-05 3.9282959857682094e-05 0.0009999999999999998 -0.00019999999999999998 0.00029999999999999997
90 2.2371442225330627e-06 1.609866192273609e-06 2.0478026761546168e-05 4.7282959857682085e-05 0.0009999999999999998 -0.00019999999999999998 0.00029999999999999997
91 3.2103635451487513e-06 1.609866192273609e-06 2.8478026761544184e-05 -2.4717040142317903e-05 0.001 -0.00020000000000000001 0.00030000000000000003
92 2.0054526271355036e-06 1.609866192273609e-06 2.8478026761544184e-05 -1.6717040142317905e-05 0.001 -0.00020000000000000001 0.00029999999999999997
93 1.469429975263138e-06 1.609866192273609e-06 2.8478026761544184e-05 -8.7170401423179074e-06 0.001 -0.00020000000000000001 0.00029999999999999997
94 1.7481383023563151e-06 1.609866192273609e-06 2.8478026761544184e-05 -7.1704014231790608e-07 0.001 -0.00020000000000000001 0.00029999999999999997
95 1.8107438287095883e-06 1.609866192273609e-06 2.8478026761544184e-05 7.282959857682091e-06 0.001 -0.00020000000000000001 0.00029999999999999997
96 1.4129401095027562e-06 1.609866192273609e-06 2.8478026761544184e-05 1.5282959857682093e-05 0.001 -0.00020000000000000001 0.00029999999999999992
97 1.955978060098673e-06 1.609866192273609e-06 2.8478026761544184e-05 2.3282959857682091e-05 0.001 -0.00020000000000000001 0.00029999999999999997
98 3.7247584776597988e-06 1.609866192273609e-06 2.8478026761544184e-05 3.1282959857682089e-05 0.001 -0.00020000000000000001 0.00029999999999999997
99 2.3889145972856632e-06 1.609866192273609e-06 2.8478026761544184e-05 3.9282959857682094e-05 0.001 -0.00020000000000000001 0.00029999999999999997
100 2.4136252211986749e-06 1.609866192273609e-06 2.8478026761544184e-05 4.7282959857682085e-05 0.001 -0.00020000000000000001 0.00029999999999999997
101 1.3159967040931034e-06 9.6098661922737325e-06 -4.352197323845654e-05 -2.4717040142317903e-05 0.0010000000000000002 -0.00020000000000000004 0.00029999999999999997
102 1.3193931992956092e-06 9.6098661922737325e-06 -4.352197323845654e-05 -1.6717040142317905e-05 0.001 -0.00020000000000000001 0.00029999999999999997
103 2.5650593124940997e-06 9.6098661922737325e-06 -4.352197323845654e-05 -8.7170401423179074e-06 0.001 -0.00020000000000000001 0.00029999999999999997
104 3.3906420895071185e-06 9.6098661922737325e-06 -4.352197323845654e-05 -7.1704014231790608e-07 0.001 -0.00020000000000000001 0.00029999999999999997
105 1.5772217895955701e-06 9.6098661922737325e-06 -4.352197323845654e-05 7.282959857682091e-06 0.001 -0.00020000000000000001 0.00029999999999999997
106 1.4138130897963794e-06 9.6098661922737325e-06 -4.352197323845654e-05 1.5282959857682093e-05 0.001 -0.00020000000000000001 0.00029999999999999997
107 2.204029075168799e-06 9.6098661922737325e-06 -4.352197323845654e-05 2.3282959857682091e-05 0.001 -0.00020000000000000001 0.00029999999999999997
108 1.9233795792581733e-06 9.6098661922737325e-06 -4.352197323845654e-05 3.1282959857682089e-05 0.001 -0.00020000000000000004 0.00029999999999999997
109 1.8430682088224542e-06 9.6098661922737325e-06 -4.352197323845654e-05 3.9282959857682094e-05 0.001 -0.00020000000000000001 0.00029999999999999997
110 1.2023211821958081e-06 9.6098661922737325e-06 -4.352197323845654e-05 4.7282959857682085e-05 0.001 -0.00020000000000000001 0.00029999999999999997
111 1.7162331502856089e-06 9.6098661922737325e-06 -3.5521973238455634e-05 -2.4717040142317903e-05 0.001 -0.00020000000000000004 0.00030000000000000003
112 2.1945891637821899e-06 9.6098661922737325e-06 -3.5521973238455634e-05 -1.6717040142317905e-05 0.001 -0.00020000000000000001 0.00029999999999999997
113 2.4228828584671954e-06 9.6098661922737325e-06 -3.5521973238455634e-05 -8.7170401423179074e-06 0.001 -0.00020000000000000001 0.00029999999999999997
114 2.3749687788661113e-06 9.6098661922737325e-06 -3.5521973238455634e-05 -7.1704014231790608e-07 0.001 -0.00020000000000000001 0.00029999999999999997
115 1.0887099258381452e-06 9.6098661922737325e-06 -3.5521973238455634e-05 7.282959857682091e-06 0.001 -0.00020000000000000001 0.00029999999999999997
116 2.0874017227212916e-06 9.6098661922737325e-06 -3.5521973238455634e-05 1.5282959857682093e-05 0.001 -0.00020000000000000001 0.00029999999999999992
117 1.9120567089325231e-06 9.6098661922737325e-06 -3.5521973238455634e-05 2.3282959857682091e-05 0.001 -0.00020000000000000001 0.00029999999999999997
118 1.5252286585192844e-06 9.6098661922737325e-06 -3.5521973238455634e-05 3.1282959857682089e-05 0.0009999999999999998 -0.00020000000000000001 0.00029999999999999992
119 1.4529384855570733e-06 9.6098661922737325e-06 -3.5521973238455634e-05 3.9282959857682094e-05 0.001 -0.00020000000000000001 0.00029999999999999997
120 1.0525119903387191e-06 9.6098661922737325e-06 -3.5521973238455634e-05 4.7282959857682085e-05 0.001 -0.00020000000000000001 0.00029999999999999997
121 2.3097606252364434e-06 9.6098661922737325e-06 -2.7521973238453833e-05 -2.4717040142317903e-05 0.001 -0.00020000000000000001 0.00029999999999999997
122 2.5526809519951423e-06 9.6098661922737325e-06 -2.7521973238453833e-05 -1.6717040142317905e-05 0.001 -0.00020000000000000004 0.00029999999999999997
123 2.5757678657234578e-06 9.6098661922737325e-06 -2.7521973238453833e-05 -8.7170401423179074e-06 0.001 -0.00020000000000000004 0.00029999999999999997
124 1.6813877796003858e-06 9.6098661922737325e-06 -2.7521973238453833e-05 -7.1704014231790608e-07 0.001 -0.00020000000000000004 0.00029999999999999997
125 2.0685614103309844e-06 9.6098661922737325e-06 -2.7521973238453833e-05 7.282959857682091e-06 0.001 -0.00020000000000000004 0.00029999999999999997
126 1.6222051653863263e-06 9.6098661922737325e-06 -2.7521973238453833e-05 1.5282959857682093e-05 0.001 -0.00020000000000000001 0.00030000000000000003
127 1.634160708277734e-06 9.6098661922737325e-06 -2.7521973238453833e-05 2.3282959857682091e-05 0.001 -0.00020000000000000004 0.00029999999999999997
128 1.8815147649915504e-06 9.6098661922737325e-06 -2.7521973238453833e-05 3.1282959857682089e-05 0.001 -0.00020000000000000001 0.00030000000000000003
129 2.0364543541444709e-06 9.6098661922737325e-06 -2.7521973238453833e-05 3.9282959857682094e-05 0.001 -0.00020000000000000004 0.00029999999999999997
130 1.9552835728546476e-06 9.6098661922737325e-06 -2.7521973238453833e-05 4.7282959857682085e-05 0.001 -0.00020000000000000004 0.00029999999999999997
131 3.2118317735611842e-06 9.6098661922737325e-06 -1.9521973238454418e-05 -2.4717040142317903e-05 0.001 -0.00020000000000000001 0.00029999999999999992
132 1.9143262104358328e-06 9.6098661922737325e-06 -1.9521973238454418e-05 -1.6717040142317905e-05 0.001 -0.00020000000000000001 0.00029999999999999997
133 2.9705510733211562e-06 9.6098661922737325e-06 -1.9521973238454418e-05 -8.7170401423179074e-06 0.001 -0.00020000000000000001 0.00029999999999999997
134 2.5715401244889635e-06 9.6098661922737325e-06 -1.9521973238454418e-05 -7.1704014231790608e-07 0.001 -0.00020000000000000001 0.00029999999999999997
135 1.8586043360547151e-06 9.6098661922737325e-06 -1.9521973238454418e-05 7.282959857682091e-06 0.001 -0.00020000000000000001 0.00029999999999999997
136 1.8132789801538011e-06 9.6098661922737325e-06 -1.9521973238454418e-05 1.5282959857682093e-05 0.001 -0.00020000000000000004 0.00029999999999999992
137 2.3111203511826491e-06 9.6098661922737325e-06 -1.9521973238454418e-05 2.3282959857682091e-05 0.001 -0.00020000000000000001 0.00029999999999999997
138 1.4386265175388244e-06 9.6098661922737325e-06 -1.9521973238454418e-05 3.1282959857682089e-05 0.001 -0.00020000000000000001 0.00030000000000000003
139 2.2214103658916269e-06 9.6098661922737325e-06 -1.9521973238454418e-05 3.9282959857682094e-05 0.001 -0.00020000000000000001 0.00029999999999999997
140 3.7625777081410401e-06 9.6098661922737325e-06 -1.9521973238454418e-05 4.7282959857682085e-05 0.001 -0.00020000000000000001 0.00029999999999999997
141 1.8994363797215898e-06 9.6098661922737325e-06 -1.1521973238454859e-05 -2.4717040142317903e-05 0.001 -0.00020000000000000001 0.00029999999999999997
142 1.7486641885864786e-06 9.6098661922737325e-06 -1.1521973238454859e-05 -1.6717040142317905e-05 0.001 -0.00020000000000000004 0.00029999999999999997
143 2.5234660496083544e-06 9.6098661922737325e-06 -1.1521973238454859e-05 -8.7170401423179074e-06 0.001 -0.00020000000000000004 0.00029999999999999997
144 2.2029839406700497e-06 9.6098661922737325e-06 -1.1521973238454859e-05 -7.1704014231790608e-07 0.001 -0.00020000000000000004 0.00029999999999999997
145 1.4124551389100619e-06 9.6098661922737325e-06 -1.1521973238454859e-05 7.282959857682091e-06 0.001 -0.00020000000000000004 0.00029999999999999997
146 1.6864139912313447e-06 9.6098661922737325e-06 -1.1521973238454859e-05 1.5282959857682093e-05 0.001 -0.00020000000000000001 0.00029999999999999992
147 1.4333006784435929e-06 9.6098661922737325e-06 -1.1521973238454859e-05 2.3282959857682091e-05 0.001 -0.00020000000000000004 0.00029999999999999997
148 1.3379121155694881e-06 9.6098661922737325e-06 -1.1521973238454859e-05 3.1282959857682089e-05 0.001 -0.00020000000000000001 0.00030000000000000003
149 2.0506380940369715e-06 9.6098661922737325e-06 -1.1521973238454859e-05 3.9282959857682094e-05 0.001 -0.00020000000000000004 0.00029999999999999997
150 1.8382675072445641e-06 9.6098661922737325e-06 -1.1521973238454859e-05 4.7282959857682085e-05 0.001 -0.00020000000000000004 0.00029999999999999997
151 2.1838137253789679e-06 9.6098661922737325e-06 -3.5219732384547602e-06 -2.4717040142317903e-05 0.001 -0.00020000000000000001 0.00029999999999999992
152 1.640202276767102e-06 9.6098661922737325e-06 -3.5219732384547602e-06 -1.6717040142317905e-05 0.001 -0.00019999999999999998 0.00030000000000000003
153 1.7127020214775575e-06 9.6098661922737325e-06 -3.5219732384547602e-06 -8.7170401423179074e-06 0.001 -0.00019999999999999998 0.00030000000000000003
154 1.8969189883900145e-06 9.6098661922737325e-06 -3.5219732384547597e-06 -7.1704014231790608e-07 0.001 -0.00019999999999999998 0.00030000000000000003
155 1.6565136848078632e-06 9.6098661922737325e-06 -3.5219732384547602e-06 7.282959857682091e-06 0.001 -0.00019999999999999998 0.00030000000000000003
156 1.7487119425426402e-06 9.6098661922737325e-06 -3.5219732384547602e-06 1.5282959857682093e-05 0.001 -0.00020000000000000004 0.00029999999999999997
157 1.743225771632789e-06 9.6098661922737325e-06 -3.5219732384547597e-06 2.3282959857682091e-05 0.001 -0.00019999999999999998 0.00030000000000000003
158 1.3765636231105943e-06 9.6098661922737325e-06 -3.5219732384547602e-06 3.1282959857682089e-05 0.001 -0.00020000000000000001 0.00029999999999999997
159 1.7989042348274586e-06 9.6098661922737325e-06 -3.5219732384547602e-06 3.9282959857682094e-05 0.001 -0.00019999999999999998 0.00030000000000000003
160 1.7520803662481545e-06 9.6098661922737325e-06 -3.5219732384547597e-06 4.7282959857682085e-05 0.001 -0.00019999999999999998 0.00030000000000000003
161 3.8179342624977152e-06 9.6098661922737325e-06 4.4780267615450946e-06 -2.4717040142317903e-05 0.001 -0.00020000000000000001 0.00029999999999999992
162 1.4149096122721978e-06 9.6098661922737325e-06 4.4780267615450946e-06 -1.6717040142317905e-05 0.001 -0.00019999999999999998 0.00029999999999999997
163 3.0068986266145854e-06 9.6098661922737325e-06 4.4780267615450946e-06 -8.7170401423179074e-06 0.001 -0.00019999999999999998 0.00029999999999999997
164 1.872318013163135e-06 9.6098661922737325e-06 4.4780267615450946e-06 -7.1704014231790608e-07 0.001 -0.00019999999999999998 0.00029999999999999997
165 3.0658125061732252e-06 9.6098661922737325e-06 4.4780267615450946e-06 7.282959857682091e-06 0.001 -0.00019999999999999998 0.00029999999999999997
166 2.6231782045798922e-06 9.6098661922737325e-06 4.4780267615450946e-06 1.5282959857682093e-05 0.001 -0.00020000000000000001 0.00029999999999999997
167 2.7704828240678104e-06 9.6098661922737325e-06 4.4780267615450946e-06 2.3282959857682091e-05 0.001 -0.00019999999999999998 0.00029999999999999997
168 1.7092477812371371e-06 9.6098661922737325e-06 4.4780267615450946e-06 3.1282959857682089e-05 0.001 -0.00020000000000000001 0.00029999999999999997
169 1.7016303375087805e-06 9.6098661922737325e-06 4.4780267615450946e-06 3.9282959857682094e-05 0.001 -0.00019999999999999998 0.00029999999999999997
170 2.077180048374831e-06 9.6098661922737325e-06 4.4780267615450946e-06 4.7282959857682085e-05 0.001 -0.00019999999999999998 0.00029999999999999997
171 1.2958854327444342e-06 9.6098661922737325e-06 1.2478026761545662e-05 -2.4717040142317903e-05 0.001 -0.00020000000000000001 0.00029999999999999997
172 2.3973065729465763e-06 9.6098661922737325e-06 1.2478026761545662e-05 -1.6717040142317905e-05 0.001 -0.00019999999999999998 0.00029999999999999997
173 1.1152101437584407e-06 9.6098661922737325e-06 1.2478026761545662e-05 -8.7170401423179074e-06 0.001 -0.00019999999999999998 0.00029999999999999997
174 2.6306772396196764e-06 9.6098661922737325e-06 1.2478026761545662e-05 -7.1704014231790608e-07 0.001 -0.00019999999999999998 0.00029999999999999997
175 1.7778196899582142e-06 9.6098661922737325e-06 1.2478026761545662e-05 7.282959857682091e-06 0.001 -0.00019999999999999998 0.00029999999999999997
176 2.0401001696933361e-06 9.6098661922737325e-06 1.2478026761545662e-05 1.5282959857682093e-05 0.001 -0.00020000000000000001 0.00029999999999999997
177 2.4455446808966521e-06 9.6098661922737325e-06 1.2478026761545662e-05 2.3282959857682091e-05 0.001 -0.00019999999999999998 0.00029999999999999997
178 1.3018800080734398e-06 9.6098661922737325e-06 1.2478026761545662e-05 3.1282959857682089e-05 0.001 -0.00020000000000000001 0.00029999999999999997
179 1.3442985355739242e-06 9.6098661922737325e-06 1.2478026761545662e-05 3.9282959857682094e-05 0.001 -0.00019999999999999998 0.00029999999999999997
180 1.8853466155510099e-06 9.6098661922737325e-06 1.2478026761545662e-05 4.7282959857682085e-05 0.001 -0.00019999999999999998 0.00029999999999999997
181 2.6574566560355968e-06 9.6098661922737325e-06 2.0478026761546168e-05 -2.4717040142317903e-05 0.001 -0.00020000000000000001 0.00029999999999999997
182 1.669483635177563e-06 9.6098661922737325e-06 2.0478026761546168e-05 -1.6717040142317905e-05 0.001 -0.00020000000000000004 0.00029999999999999997
183 2.4452184990705763e-06 9.6098661922737325e-06 2.0478026761546168e-05 -8.7170401423179074e-06 0.001 -0.00020000000000000004 0.00029999999999999997
184 2.079669157699844e-06 9.6098661922737325e-06 2.0478026761546168e-05 -7.1704014231790608e-07 0.001 -0.00020000000000000004 0.00029999999999999997
185 1.4688861132796983e-06 9.6098661922737325e-06 2.0478026761546168e-05 7.282959857682091e-06 0.001 -0.00020000000000000004 0.00029999999999999997
186 2.3052752099390829e-06 9.6098661922737325e-06 2.0478026761546168e-05 1.5282959857682093e-05 0.001 -0.00020000000000000001 0.00030000000000000003
187 2.8392588483928275e-06 9.6098661922737325e-06 2.0478026761546168e-05 2.3282959857682091e-05 0.001 -0.00020000000000000004 0.00029999999999999997
188 2.2395370551279453e-06 9.6098661922737325e-06 2.0478026761546168e-05 3.1282959857682089e-05 0.001 -0.00020000000000000001 0.00030000000000000003
189 1.391281746385767e-06 9.6098661922737325e-06 2.0478026761546168e-05 3.9282959857682094e-05 0.001 -0.00020000000000000004 0.00029999999999999997
190 1.2992918077374335e-06 9.6098661922737325e-06 2.0478026761546168e-05 4.7282959857682085e-05 0.001 -0.00020000000000000004 0.00029999999999999997
191 1.2989468443851733e-06 9.6098661922737325e-06 2.8478026761544184e-05 -2.4717040142317903e-05 0.001 -0.00019999999999999998 0.00029999999999999997
192 2.7565088590965447e-06 9.6098661922737325e-06 2.8478026761544184e-05 -1.6717040142317905e-05 0.001 -0.00020000000000000001 0.00029999999999999992
193 1.7219518109993063e-06 9.6098661922737325e-06 2.8478026761544184e-05 -8.7170401423179074e-06 0.001 -0.00020000000000000001 0.00029999999999999992
194 9.6670360379888213e-07 9.6098661922737325e-06 2.8478026761544184e-05 -7.1704014231790608e-07 0.001 -0.00020000000000000001 0.00029999999999999992
195 3.3028831175059516e-06 9.6098661922737325e-06 2.8478026761544184e-05 7.282959857682091e-06 0.001 -0.00020000000000000001 0.00029999999999999992
196 2.035104362484232e-06 9.6098661922737325e-06 2.8478026761544184e-05 1.5282959857682093e-05 0.001 -0.00020000000000000001 0.00030000000000000003
197 3.4943863203678019e-06 9.6098661922737325e-06 2.8478026761544184e-05 2.3282959857682091e-05 0.001 -0.00020000000000000001 0.00029999999999999992
198 1.2376129034182286e-06 9.6098661922737325e-06 2.8478026761544184e-05 3.1282959857682089e-05 0.001 -0.00020000000000000001 0.00029999999999999997
199 1.5288678868355324e-06 9.6098661922737325e-06 2.8478026761544184e-05 3.9282959857682094e-05 0.001 -0.00020000000000000001 0.00029999999999999992
200 1.6342923613713444e-06 9.6098661922737325e-06 2.8478026761544184e-05 4.7282959857682085e-05 0.001 -0.00020000000000000001 0.00029999999999999992
201 2.0588571417977604e-06 1.7609866192273527e-05 -4.352197323845654e-05 -2.4717040142317903e-05 0.001 -0.00020000000000000001 0.00029999999999999997
202 1.1434209008759385e-06 1.7609866192273527e-05 -4.352197323845654e-05 -1.6717040142317905e-05 0.001 -0.00020000000000000001 0.00029999999999999997
203 2.1579252035779676e-06 1.7609866192273527e-05 -4.352197323845654e-05 -8.7170401423179074e-06 0.001 -0.00020000000000000001 0.00029999999999999997
204 1.7632635118827976e-06 1.7609866192273527e-05 -4.352197323845654e-05 -7.1704014231790608e-07 0.001 -0.00020000000000000001 0.00029999999999999997
205 1.787883848535563e-06 1.7609866192273527e-05 -4.352197323845654e-05 7.282959857682091e-06 0.001 -0.00020000000000000001 0.00029999999999999997
206 1.9348799141976883e-06 1.7609866192273527e-05 -4.352197323845654e-05 1.5282959857682093e-05 0.0009999999999999998 -0.00019999999999999998 0.00030000000000000003
207 2.9969855707162403e-06 1.7609866192273527e-05 -4.352197323845654e-05 2.3282959857682091e-05 0.001 -0.00020000000000000001 0.00029999999999999997
208 1.3616395802736874e-06 1.7609866192273527e-05 -4.352197323845654e-05 3.1282959857682089e-05 0.001 -0.00020000000000000001 0.00030000000000000003
209 1.3077684007797787e-06 1.7609866192273527e-05 -4.352197323845654e-05 3.9282959857682094e-05 0.001 -0.00020000000000000001 0.00029999999999999997
210 2.9165610015166685e-06 1.7609866192273527e-05 -4.352197323845654e-05 4.7282959857682085e-05 0.001 -0.00020000000000000001 0.00029999999999999997
211 1.8503675300870634e-06 1.7609866192273527e-05 -3.5521973238455634e-05 -2.4717040142317903e-05 0.001 -0.00020000000000000001 0.00029999999999999992
212 2.1613120462093317e-06 1.7609866192273527e-05 -3.5521973238455634e-05 -1.6717040142317905e-05 0.001 -0.00020000000000000004 0.00029999999999999997
213 1.8716127835794765e-06 1.7609866192273527e-05 -3.5521973238455634e-05 -8.7170401423179074e-06 0.001 -0.00020000000000000004 0.00029999999999999997
214 1.4179388207771894e-06 1.7609866192273527e-05 -3.5521973238455634e-05 -7.1704014231790608e-07 0.001 -0.00020000000000000004 0.00029999999999999997
215 2.2746957658072362e-06 1.7609866192273527e-05 -3.5521973238455634e-05 7.282959857682091e-06 0.001 -0.00020000000000000004 0.00029999999999999997
216 1.8710311952253797e-06 1.7609866192273527e-05 -3.5521973238455634e-05 1.5282959857682093e-05 0.001 -0.00020000000000000001 0.00029999999999999997
217 2.5621230069473621e-06 1.7609866192273527e-05 -3.5521973238455634e-05 2.3282959857682091e-05 0.001 -0.00020000000000000004 0.00029999999999999997
218 1.4517852404634872e-06 1.7609866192273527e-05 -3.5521973238455634e-05 3.1282959857682089e-05 0.001 -0.00020000000000000001 0.00029999999999999997
219 1.8875691419490586e-06 1.7609866192273527e-05 -3.5521973238455634e-05 3.9282959857682094e-05 0.001 -0.00020000000000000004 0.00029999999999999997
220 2.8813302885582384e-06 1.7609866192273527e-05 -3.5521973238455634e-05 4.7282959857682085e-05 0.001 -0.00020000000000000004 0.00029999999999999997
221 2.8181022665001782e-06 1.7609866192273527e-05 -2.7521973238453833e-05 -2.4717040142317903e-05 0.001 -0.00020000000000000001 0.00029999999999999997
222 2.1708349720687844e-06 1.7609866192273527e-05 -2.7521973238453833e-05 -1.6717040142317905e-05 0.001 -0.00020000000000000001 0.00030000000000000003
223 1.5046919267322715e-06 1.7609866192273527e-05 -2.7521973238453833e-05 -8.7170401423179074e-06 0.001 -0.00020000000000000001 0.00030000000000000003
224 1.799297816995625e-06 1.7609866192273527e-05 -2.7521973238453833e-05 -7.1704014231790608e-07 0.001 -0.00020000000000000001 0.00030000000000000003
225 1.294832102416562e-06 1.7609866192273527e-05 -2.7521973238453833e-05 7.282959857682091e-06 0.001 -0.00020000000000000001 0.00030000000000000003
226 2.0047316879317904e-06 1.7609866192273527e-05 -2.7521973238453833e-05 1.5282959857682093e-05 0.001 -0.00020000000000000001 0.00029999999999999997
227 1.8836865395907268e-06 1.7609866192273527e-05 -2.7521973238453833e-05 2.3282959857682091e-05 0.001 -0.00020000000000000001 0.00030000000000000003
228 1.6612106025135393e-06 1.7609866192273527e-05 -2.7521973238453833e-05 3.1282959857682089e-05 0.001 -0.00020000000000000001 0.00029999999999999992
229 1.5960022455332918e-06 1.7609866192273527e-05 -2.7521973238453833e-05 3.9282959857682094e-05 0.001 -0.00020000000000000001 0.00030000000000000003
230 2.9141144660977429e-06 1.7609866192273527e-05 -2.7521973238453833e-05 4.7282959857682085e-05 0.001 -0.00020000000000000001 0.00030000000000000003
231 2.6545685895727707e-06 1.7609866192273527e-05 -1.9521973238454418e-05 -2.4717040142317903e-05 0.0009999999999999998 -0.00020000000000000001 0.00029999999999999992
232 3.0824669368229129e-06 1.7609866192273527e-05 -1.9521973238454418e-05 -1.6717040142317905e-05 0.001 -0.00020000000000000001 0.00030000000000000003
233 1.1206031116352847e-06 1.7609866192273527e-05 -1.9521973238454418e-05 -8.7170401423179074e-06 0.001 -0.00020000000000000001 0.00030000000000000003
234 1.8149254746973703e-06 1.7609866192273527e-05 -1.9521973238454418e-05 -7.1704014231790608e-07 0.001 -0.00020000000000000001 0.00030000000000000003
235 3.2631057884092516e-06 1.7609866192273527e-05 -1.9521973238454418e-05 7.282959857682091e-06 0.001 -0.00020000000000000001 0.00030000000000000003
236 2.2820074915260092e-06 1.7609866192273527e-05 -1.9521973238454418e-05 1.5282959857682093e-05 0.001 -0.00020000000000000001 0.00029999999999999997
237 2.3657185072364187e-06 1.7609866192273527e-05 -1.9521973238454418e-05 2.3282959857682091e-05 0.001 -0.00020000000000000001 0.00030000000000000003
238 2.5777694117075349e-06 1.7609866192273527e-05 -1.9521973238454418e-05 3.1282959857682089e-05 0.001 -0.00019999999999999998 0.00029999999999999997
239 2.7833725651787784e-06 1.7609866192273527e-05 -1.9521973238454418e-05 3.9282959857682094e-05 0.001 -0.00020000000000000001 0.00030000000000000003
240 1.1573786221283205e-06 1.7609866192273527e-05 -1.9521973238454418e-05 4.7282959857682085e-05 0.001 -0.00020000000000000001 0.00030000000000000003
241 3.3886456555228973e-06 1.7609866192273527e-05 -1.1521973238454859e-05 -2.4717040142317903e-05 0.001 -0.00019999999999999998 0.00029999999999999992
242 1.1996863596673608e-06 1.7609866192273527e-05 -1.1521973238454859e-05 -1.6717040142317905e-05 0.001 -0.00020000000000000001 0.00029999999999999997
243 1.6493901777067851e-06 1.7609866192273527e-05 -1.1521973238454859e-05 -8.7170401423179074e-06 0.001 -0.00020000000000000001 0.00029999999999999997
244 1.6938876872476683e-06 1.7609866192273527e-05 -1.1521973238454859e-05 -7.1704014231790608e-07 0.001 -0.00020000000000000001 0.00029999999999999997
245 1.7137295417391552e-06 1.7609866192273527e-05 -1.1521973238454859e-05 7.282959857682091e-06 0.001 -0.00020000000000000001 0.00029999999999999997
246 1.0173211140823616e-06 1.7609866192273527e-05 -1.1521973238454859e-05 1.5282959857682093e-05 0.001 -0.00020000000000000001 0.00029999999999999997
247 2.3695856379478519e-06 1.7609866192273527e-05 -1.1521973238454859e-05 2.3282959857682091e-05 0.001 -0.00020000000000000001 0.00029999999999999997
248 1.7910308511312091e-06 1.7609866192273527e-05 -1.1521973238454859e-05 3.1282959857682089e-05 0.001 -0.00019999999999999998 0.00029999999999999997
249 1.3493151760776479e-06 1.7609866192273527e-05 -1.1521973238454859e-05 3.9282959857682094e-05 0.001 -0.00020000000000000001 0.00029999999999999997
250 1.1980454322359464e-06 1.7609866192273527e-05 -1.1521973238454859e-05 4.7282959857682085e-05 0.001 -0.00020000000000000001 0.00029999999999999997
251 2.0831964993476294e-06 1.7609866192273527e-05 -3.5219732384547597e-06 -2.4717040142317903e-05 0.001 -0.00020000000000000001 0.00029999999999999997
252 2.0059972766341272e-06 1.7609866192273527e-05 -3.5219732384547597e-06 -1.6717040142317905e-05 0.001 -0.00019999999999999998 0.00029999999999999997
253 2.7459291318679777e-06 1.7609866192273527e-05 -3.5219732384547597e-06 -8.7170401423179074e-06 0.001 -0.00019999999999999998 0.00029999999999999997
254 1.8501686512476493e-06 1.7609866192273527e-05 -3.5219732384547597e-06 -7.1704014231790608e-07 0.001 -0.00019999999999999998 0.00029999999999999997
255 1.6030515699201682e-06 1.7609866192273527e-05 -3.5219732384547597e-06 7.282959857682091e-06 0.001 -0.00019999999999999998 0.00029999999999999997
256 3.5358041562807325e-06 1.7609866192273527e-05 -3.5219732384547597e-06 1.5282959857682093e-05 0.001 -0.00020000000000000001 0.00030000000000000003
257 1.8762751639802248e-06 1.7609866192273527e-05 -3.5219732384547597e-06 2.3282959857682091e-05 0.001 -0.00019999999999999998 0.00029999999999999997
258 1.9902142501958622e-06 1.7609866192273527e-05 -3.5219732384547597e-06 3.1282959857682089e-05 0.001 -0.00020000000000000001 0.00029999999999999992
259 1.3012405706259073e-06 1.7609866192273527e-05 -3.5219732384547597e-06 3.9282959857682094e-05 0.001 -0.00019999999999999998 0.00029999999999999997
260 2.1100091094391726e-06 1.7609866192273527e-05 -3.5219732384547597e-06 4.7282959857682085e-05 0.001 -0.00019999999999999998 0.00029999999999999997
261 1.6445242960643664e-06 1.7609866192273527e-05 4.4780267615450946e-06 -2.4717040142317903e-05 0.0009999999999999998 -0.00020000000000000001 0.00029999999999999997
262 1.8541447484318065e-06 1.7609866192273527e-05 4.4780267615450946e-06 -1.6717040142317905e-05 0.001 -0.00019999999999999998 0.00029999999999999997
263 1.8831336266970116e-06 1.7609866192273527e-05 4.4780267615450946e-06 -8.7170401423179074e-06 0.001 -0.00019999999999999998 0.00029999999999999997
264 1.3307889762315306e-06 1.7609866192273527e-05 4.4780267615450946e-06 -7.1704014231790608e-07 0.001 -0.00019999999999999998 0.00029999999999999997
265 1.7763574291903578e-06 1.7609866192273527e-05 4.4780267615450946e-06 7.282959857682091e-06 0.001 -0.00019999999999999998 0.00029999999999999997
266 1.6813447735361549e-06 1.7609866192273527e-05 4.4780267615450946e-06 1.5282959857682093e-05 0.001 -0.00020000000000000004 0.00030000000000000003
267 1.5297214009030282e-06 1.7609866192273527e-05 4.4780267615450946e-06 2.3282959857682091e-05 0.001 -0.00019999999999999998 0.00029999999999999997
268 1.2663127394163751e-06 1.7609866192273527e-05 4.4780267615450946e-06 3.1282959857682089e-05 0.001 -0.00020000000000000001 0.00029999999999999992
269 1.9619647348780922e-06 1.7609866192273527e-05 4.4780267615450946e-06 3.9282959857682094e-05 0.001 -0.00019999999999999998 0.00029999999999999997
270 2.8797537436875167e-06 1.7609866192273527e-05 4.4780267615450946e-06 4.7282959857682085e-05 0.001 -0.00019999999999999998 0.00029999999999999997
271 1.2294754943297532e-06 1.7609866192273527e-05 1.2478026761545662e-05 -2.4717040142317903e-05 0.001 -0.00020000000000000001 0.00029999999999999997
272 1.8938321982737696e-06 1.7609866192273527e-05 1.2478026761545662e-05 -1.6717040142317905e-05 0.001 -0.00020000000000000001 0.00029999999999999997
273 2.193271213636377e-06 1.7609866192273527e-05 1.2478026761545662e-05 -8.7170401423179074e-06 0.001 -0.00020000000000000001 0.00029999999999999997
274 1.2415512179488843e-06 1.7609866192273527e-05 1.2478026761545662e-05 -7.1704014231790608e-07 0.001 -0.00020000000000000001 0.00029999999999999997
275 2.6387877750875648e-06 1.7609866192273527e-05 1.2478026761545662e-05 7.282959857682091e-06 0.001 -0.00020000000000000001 0.00029999999999999997
276 1.937651727064834e-06 1.7609866192273527e-05 1.2478026761545662e-05 1.5282959857682093e-05 0.001 -0.00020000000000000004 0.00030000000000000003
277 1.1800827684226149e-06 1.7609866192273527e-05 1.2478026761545662e-05 2.3282959857682091e-05 0.001 -0.00020000000000000001 0.00029999999999999997
278 1.3121142577175316e-06 1.7609866192273527e-05 1.2478026761545662e-05 3.1282959857682089e-05 0.001 -0.00020000000000000001 0.00030000000000000003
279 2.128761544127188e-06 1.7609866192273527e-05 1.2478026761545662e-05 3.9282959857682094e-05 0.001 -0.00020000000000000001 0.00029999999999999997
280 2.1262459257609025e-06 1.7609866192273527e-05 1.2478026761545662e-05 4.7282959857682085e-05 0.001 -0.00020000000000000001 0.00029999999999999997
281 1.327940911524226e-06 1.7609866192273527e-05 2.0478026761546168e-05 -2.4717040142317903e-05 0.001 -0.00020000000000000001 0.00029999999999999997
282 1.3982591428277136e-06 1.7609866192273527e-05 2.0478026761546168e-05 -1.6717040142317905e-05 0.001 -0.00020000000000000001 0.00030000000000000003
283 2.0105237349071168e-06 1.7609866192273527e-05 2.0478026761546168e-05 -8.7170401423179074e-06 0.001 -0.00020000000000000001 0.00030000000000000003
284 1.2132571833355365e-06 1.7609866192273527e-05 2.0478026761546168e-05 -7.1704014231790608e-07 0.001 -0.00020000000000000001 0.00030000000000000003
285 1.1441690067146605e-06 1.7609866192273527e-05 2.0478026761546168e-05 7.282959857682091e-06 0.001 -0.00020000000000000001 0.00030000000000000003
286 1.5644681217118712e-06 1.7609866192273527e-05 2.0478026761546168e-05 1.5282959857682093e-05 0.001 -0.00020000000000000001 0.00029999999999999997
287 1.2899131128515166e-06 1.7609866192273527e-05 2.0478026761546168e-05 2.3282959857682091e-05 0.001 -0.00020000000000000001 0.00030000000000000003
288 3.0644029335690302e-06 1.7609866192273527e-05 2.0478026761546168e-05 3.1282959857682089e-05 0.001 -0.00020000000000000001 0.00029999999999999992
289 2.5555527152758319e-06 1.7609866192273527e-05 2.0478026761546168e-05 3.9282959857682094e-05 0.001 -0.00020000000000000001 0.00030000000000000003
290 1.4054222800843567e-06 1.7609866192273527e-05 2.0478026761546168e-05 4.7282959857682085e-05 0.001 -0.00020000000000000001 0.00030000000000000003
291 3.0521896904783096e-06 1.7609866192273527e-05 2.8478026761544184e-05 -2.4717040142317903e-05 0.001 -0.00020000000000000001 0.00029999999999999997
292 1.3840115651705557e-06 1.7609866192273527e-05 2.8478026761544184e-05 -1.6717040142317905e-05 0.001 -0.00020000000000000001 0.00029999999999999997
293 2.0952201983788915e-06 1.7609866192273527e-05 2.8478026761544184e-05 -8.7170401423179074e-06 0.001 -0.00020000000000000001 0.00029999999999999997
294 3.8166029458383348e-06 1.7609866192273527e-05 2.8478026761544184e-05 -7.1704014231790608e-07 0.001 -0.00020000000000000001 0.00029999999999999997
295 1.2391420881123025e-06 1.7609866192273527e-05 2.8478026761544184e-05 7.282959857682091e-06 0.001 -0.00020000000000000001 0.00029999999999999997
296 2.4495806594567452e-06 1.7609866192273527e-05 2.8478026761544184e-05 1.5282959857682093e-05 0.001 -0.00020000000000000001 0.00029999999999999992
297 1.9284974716405827e-06 1.7609866192273527e-05 2.8478026761544184e-05 2.3282959857682091e-05 0.001 -0.00020000000000000001 0.00029999999999999997
298 2.4824378669600704e-06 1.7609866192273527e-05 2.8478026761544184e-05 3.1282959857682089e-05 0.001 -0.00020000000000000001 0.00029999999999999997
299 1.5901020232078727e-06 1.7609866192273527e-05 2.8478026761544184e-05 3.9282959857682094e-05 0.001 -0.00020000000000000001 0.00029999999999999997
300 3.1457930952720848e-06 1.7609866192273527e-05 2.8478026761544184e-05 4.7282959857682085e-05 0.001 -0.00020000000000000001 0.00029999999999999997
301 2.6497532755289814e-06 2.5609866192273647e-05 -4.352197323845654e-05 -2.4717040142317903e-05 0.001 -0.00020000000000000001 0.00029999999999999997
302 1.3851284423813066e-06 2.5609866192273647e-05 -4.352197323845654e-05 -1.6717040142317905e-05 0.001 -0.00020000000000000001 0.00030000000000000003
303 9.4967412086524598e-07 2.5609866192273647e-05 -4.352197323845654e-05 -8.7170401423179074e-06 0.001 -0.00020000000000000001 0.00030000000000000003
304 1.2831306812726424e-06 2.5609866192273647e-05 -4.352197323845654e-05 -7.1704014231790608e-07 0.001 -0.00020000000000000001 0.00030000000000000003
305 1.3208428294390447e-06 2.5609866192273647e-05 -4.352197323845654e-05 7.282959857682091e-06 0.001 -0.00020000000000000001 0.00030000000000000003
306 3.0448600330620355e-06 2.5609866192273647e-05 -4.352197323845654e-05 1.5282959857682093e-05 0.001 -0.00019999999999999998 0.00029999999999999997
307 1.3926718852432492e-06 2.5609866192273647e-05 -4.352197323845654e-05 2.3282959857682091e-05 0.001 -0.00020000000000000001 0.00030000000000000003
308 1.7828269814939539e-06 2.5609866192273647e-05 -4.352197323845654e-05 3.1282959857682089e-05 0.001 -0.00019999999999999998 0.00029999999999999992
309 1.4675292511534648e-06 2.5609866192273647e-05 -4.352197323845654e-05 3.9282959857682094e-05 0.001 -0.00020000000000000001 0.00030000000000000003
310 3.0589642263014149e-06 2.5609866192273647e-05 -4.352197323845654e-05 4.7282959857682085e-05 0.001 -0.00020000000000000001 0.00030000000000000003
311 3.8502956091320226e-06 2.5609866192273647e-05 -3.5521973238455634e-05 -2.4717040142317903e-05 0.001 -0.00020000000000000001 0.00029999999999999992
312 3.757843994465852e-06 2.5609866192273647e-05 -3.5521973238455634e-05 -1.6717040142317905e-05 0.001 -0.00020000000000000001 0.00029999999999999997
313 1.7278652185650871e-06 2.5609866192273647e-05 -3.5521973238455634e-05 -8.7170401423179074e-06 0.001 -0.00020000000000000001 0.00029999999999999997
314 2.0330549080716501e-06 2.5609866192273647e-05 -3.5521973238455634e-05 -7.1704014231790608e-07 0.001 -0.00020000000000000001 0.00029999999999999997
315 2.2617908410337774e-06 2.5609866192273647e-05 -3.5521973238455634e-05 7.282959857682091e-06 0.001 -0.00020000000000000001 0.00029999999999999997
316 2.4541960448766501e-06 2.5609866192273647e-05 -3.5521973238455634e-05 1.5282959857682093e-05 0.001 -0.00020000000000000001 0.00029999999999999992
317 1.8744605442536642e-06 2.5609866192273647e-05 -3.5521973238455634e-05 2.3282959857682091e-05 0.001 -0.00020000000000000001 0.00029999999999999997
318 1.6771181457242361e-06 2.5609866192273647e-05 -3.5521973238455634e-05 3.1282959857682089e-05 0.001 -0.00020000000000000001 0.00030000000000000003
319 1.6670478285527825e-06 2.5609866192273647e-05 -3.5521973238455634e-05 3.9282959857682094e-05 0.001 -0.00020000000000000001 0.00029999999999999997
320 2.0381524381599294e-06 2.5609866192273647e-05 -3.5521973238455634e-05 4.7282959857682085e-05 0.001 -0.00020000000000000001 0.00029999999999999997
321 2.608823769024921e-06 2.5609866192273647e-05 -2.7521973238453833e-05 -2.4717040142317903e-05 0.001 -0.00020000000000000001 0.00029999999999999997
322 1.8878118103787065e-06 2.5609866192273647e-05 -2.7521973238453833e-05 -1.6717040142317905e-05 0.001 -0.00019999999999999998 0.00029999999999999997
323 2.2836711381180188e-06 2.5609866192273647e-05 -2.7521973238453833e-05 -8.7170401423179074e-06 0.001 -0.00019999999999999998 0.00029999999999999997
324 3.7599065803059529e-06 2.5609866192273647e-05 -2.7521973238453833e-05 -7.1704014231790608e-07 0.001 -0.00019999999999999998 0.00029999999999999997
325 1.3422930071035254e-06 2.5609866192273647e-05 -2.7521973238453833e-05 7.282959857682091e-06 0.001 -0.00019999999999999998 0.00029999999999999997
326 2.4184201591830578e-06 2.5609866192273647e-05 -2.7521973238453833e-05 1.5282959857682093e-05 0.001 -0.00020000000000000004 0.00029999999999999997
327 1.5026390437910228e-06 2.5609866192273647e-05 -2.7521973238453833e-05 2.3282959857682091e-05 0.001 -0.00019999999999999998 0.00029999999999999997
328 3.126086038751627e-06 2.5609866192273647e-05 -2.7521973238453833e-05 3.1282959857682089e-05 0.001 -0.00020000000000000001 0.00029999999999999997
329 1.2611366921751382e-06 2.5609866192273647e-05 -2.7521973238453833e-05 3.9282959857682094e-05 0.001 -0.00019999999999999998 0.00029999999999999997
330 1.7552388866627224e-06 2.5609866192273647e-05 -2.7521973238453833e-05 4.7282959857682085e-05 0.001 -0.00019999999999999998 0.00029999999999999997
331 3.0765275790830311e-06 2.5609866192273647e-05 -1.9521973238454418e-05 -2.4717040142317903e-05 0.001 -0.00020000000000000001 0.00029999999999999992
332 1.4712451427200956e-06 2.5609866192273647e-05 -1.9521973238454418e-05 -1.6717040142317905e-05 0.001 -0.00019999999999999998 0.00029999999999999997
333 3.0352244348663657e-06 2.5609866192273647e-05 -1.9521973238454418e-05 -8.7170401423179074e-06 0.001 -0.00019999999999999998 0.00029999999999999997
334 3.0647075690747675e-06 2.5609866192273647e-05 -1.9521973238454418e-05 -7.1704014231790608e-07 0.001 -0.00019999999999999998 0.00029999999999999997
335 1.2485307266908842e-06 2.5609866192273647e-05 -1.9521973238454418e-05 7.282959857682091e-06 0.001 -0.00019999999999999998 0.00029999999999999997
336 2.7320416179989961e-06 2.5609866192273647e-05 -1.9521973238454418e-05 1.5282959857682093e-05 0.001 -0.00020000000000000004 0.00029999999999999997
337 3.3445393267927848e-06 2.5609866192273647e-05 -1.9521973238454418e-05 2.3282959857682091e-05 0.001 -0.00019999999999999998 0.00029999999999999997
338 1.2499365590099163e-06 2.5609866192273647e-05 -1.9521973238454418e-05 3.1282959857682089e-05 0.001 -0.00019999999999999998 0.00030000000000000003
339 1.3086985597234358e-06 2.5609866192273647e-05 -1.9521973238454418e-05 3.9282959857682094e-05 0.001 -0.00019999999999999998 0.00029999999999999997
340 2.2391074216410735e-06 2.5609866192273647e-05 -1.9521973238454418e-05 4.7282959857682085e-05 0.001 -0.00019999999999999998 0.00029999999999999997
341 1.9038711703097162e-06 2.5609866192273647e-05 -1.1521973238454859e-05 -2.4717040142317903e-05 0.001 -0.00020000000000000001 0.00030000000000000003
342 1.337366338040546e-06 2.5609866192273647e-05 -1.1521973238454859e-05 -1.6717040142317905e-05 0.001 -0.00020000000000000004 0.00029999999999999997
343 1.1636377438561614e-06 2.5609866192273647e-05 -1.1521973238454859e-05 -8.7170401423179074e-06 0.001 -0.00020000000000000004 0.00029999999999999997
344 2.0115494443642224e-06 2.5609866192273647e-05 -1.1521973238454859e-05 -7.1704014231790608e-07 0.001 -0.00020000000000000004 0.00029999999999999997
345 1.9864053292006667e-06 2.5609866192273647e-05 -1.1521973238454859e-05 7.282959857682091e-06 0.001 -0.00020000000000000004 0.00029999999999999997
346 1.572022778946572e-06 2.5609866192273647e-05 -1.1521973238454859e-05 1.5282959857682093e-05 0.001 -0.00020000000000000001 0.00029999999999999997
347 2.0331417058383602e-06 2.5609866192273647e-05 -1.1521973238454859e-05 2.3282959857682091e-05 0.001 -0.00020000000000000004 0.00029999999999999997
348 1.2884726929665913e-06 2.5609866192273647e-05 -1.1521973238454859e-05 3.1282959857682089e-05 0.001 -0.00020000000000000001 0.00029999999999999992
349 2.2585377119793782e-06 2.5609866192273647e-05 -1.1521973238454859e-05 3.9282959857682094e-05 0.001 -0.00020000000000000004 0.00029999999999999997
350 3.3526648612611369e-06 2.5609866192273647e-05 -1.1521973238454859e-05 4.7282959857682085e-05 0.001 -0.00020000000000000004 0.00029999999999999997
351 1.7323418776189319e-06 2.5609866192273647e-05 -3.5219732384547597e-06 -2.4717040142317903e-05 0.001 -0.00020000000000000001 0.00029999999999999992
352 1.8032511167475448e-06 2.5609866192273647e-05 -3.5219732384547597e-06 -1.6717040142317905e-05 0.001 -0.00019999999999999998 0.00030000000000000003
353 2.2422685511194681e-06 2.5609866192273647e-05 -3.5219732384547597e-06 -8.7170401423179074e-06 0.001 -0.00019999999999999998 0.00030000000000000003
354 2.1196874038637711e-06 2.5609866192273647e-05 -3.5219732384547597e-06 -7.1704014231790608e-07 0.001 -0.00019999999999999998 0.00030000000000000003
355 1.5343656564286631e-06 2.5609866192273647e-05 -3.5219732384547597e-06 7.282959857682091e-06 0.001 -0.00019999999999999998 0.00030000000000000003
356 3.1460924901734282e-06 2.5609866192273647e-05 -3.5219732384547597e-06 1.5282959857682093e-05 0.0009999999999999998 -0.00019999999999999998 0.00029999999999999997
357 1.7682683427694632e-06 2.5609866192273647e-05 -3.5219732384547597e-06 2.3282959857682091e-05 0.001 -0.00019999999999999998 0.00030000000000000003
358 1.4947034032736228e-06 2.5609866192273647e-05 -3.5219732384547597e-06 3.1282959857682089e-05 0.001 -0.00020000000000000001 0.00029999999999999997
359 3.0323684826268986e-06 2.5609866192273647e-05 -3.5219732384547597e-06 3.9282959857682094e-05 0.001 -0.00019999999999999998 0.00030000000000000003
360 1.9347549661301034e-06 2.5609866192273647e-05 -3.5219732384547597e-06 4.7282959857682085e-05 0.001 -0.00019999999999999998 0.00030000000000000003
361 1.3664047545907689e-06 2.5609866192273647e-05 4.4780267615450946e-06 -2.4717040142317903e-05 0.001 -0.00020000000000000001 0.00029999999999999992
362 2.1579621764266661e-06 2.5609866192273647e-05 4.4780267615450946e-06 -1.6717040142317905e-05 0.001 -0.00019999999999999998 0.00030000000000000003
363 1.211508017342859e-06 2.5609866192273647e-05 4.4780267615450946e-06 -8.7170401423179074e-06 0.001 -0.00019999999999999998 0.00030000000000000003
364 3.7745278023361851e-06 2.5609866192273647e-05 4.4780267615450946e-06 -7.1704014231790608e-07 0.001 -0.00019999999999999998 0.00030000000000000003
365 2.2015037825870857e-06 2.5609866192273647e-05 4.4780267615450946e-06 7.282959857682091e-06 0.001 -0.00019999999999999998 0.00030000000000000003
366 1.8160337042026735e-06 2.5609866192273647e-05 4.4780267615450946e-06 1.5282959857682093e-05 0.001 -0.00019999999999999998 0.00029999999999999997
367 1.6178229474732179e-06 2.5609866192273647e-05 4.4780267615450946e-06 2.3282959857682091e-05 0.001 -0.00019999999999999998 0.00030000000000000003
368 3.5435913168583901e-06 2.5609866192273647e-05 4.4780267615450946e-06 3.1282959857682089e-05 0.001 -0.00020000000000000001 0.00029999999999999997
369 1.4295949630034687e-06 2.5609866192273647e-05 4.4780267615450946e-06 3.9282959857682094e-05 0.001 -0.00019999999999999998 0.00030000000000000003
370 3.0569189592735783e-06 2.5609866192273647e-05 4.4780267615450946e-06 4.7282959857682085e-05 0.001 -0.00019999999999999998 0.00030000000000000003
371 2.139687408934795e-06 2.5609866192273647e-05 1.2478026761545662e-05 -2.4717040142317903e-05 0.001 -0.00020000000000000001 0.00029999999999999992
372 2.0224557662274177e-06 2.5609866192273647e-05 1.2478026761545662e-05 -1.6717040142317905e-05 0.001 -0.00019999999999999998 0.00030000000000000003
373 1.7912237951376481e-06 2.5609866192273647e-05 1.2478026761545662e-05 -8.7170401423179074e-06 0.001 -0.00019999999999999998 0.00030000000000000003
374 3.1833922701564364e-06 2.5609866192273647e-05 1.2478026761545662e-05 -7.1704014231790608e-07 0.001 -0.00019999999999999998 0.00030000000000000003
375 2.2945803956059078e-06 2.5609866192273647e-05 1.2478026761545662e-05 7.282959857682091e-06 0.001 -0.00019999999999999998 0.00030000000000000003
376 1.9298019897030696e-06 2.5609866192273647e-05 1.2478026761545662e-05 1.5282959857682093e-05 0.0009999999999999998 -0.00020000000000000001 0.00029999999999999997
377 2.1845622799284666e-06 2.5609866192273647e-05 1.2478026761545662e-05 2.3282959857682091e-05 0.001 -0.00019999999999999998 0.00030000000000000003
378 1.7846876214174298e-06 2.5609866192273647e-05 1.2478026761545662e-05 3.1282959857682089e-05 0.001 -0.00020000000000000001 0.00029999999999999992
379 2.0278706198122927e-06 2.5609866192273647e-05 1.2478026761545662e-05 3.9282959857682094e-05 0.001 -0.00019999999999999998 0.00030000000000000003
380 2.8216162983171044e-06 2.5609866192273647e-05 1.2478026761545662e-05 4.7282959857682085e-05 0.001 -0.00019999999999999998 0.00030000000000000003
381 1.861023797461399e-06 2.5609866192273647e-05 2.0478026761546168e-05 -2.4717040142317903e-05 0.001 -0.00020000000000000001 0.00029999999999999997
382 1.6188166973562804e-06 2.5609866192273647e-05 2.0478026761546168e-05 -1.6717040142317905e-05 0.001 -0.00019999999999999998 0.00029999999999999997
383 1.7586342289206973e-06 2.5609866192273647e-05 2.0478026761546168e-05 -8.7170401423179074e-06 0.001 -0.00019999999999999998 0.00029999999999999997
384 2.1511834511995987e-06 2.5609866192273647e-05 2.0478026761546168e-05 -7.1704014231790608e-07 0.001 -0.00019999999999999998 0.00029999999999999997
385 1.0971528026904216e-06 2.5609866192273647e-05 2.0478026761546168e-05 7.282959857682091e-06 0.001 -0.00019999999999999998 0.00029999999999999997
386 2.3029908566060102e-06 2.5609866192273647e-05 2.0478026761546168e-05 1.5282959857682093e-05 0.001 -0.00020000000000000004 0.00029999999999999997
387 1.7774530193615053e-06 2.5609866192273647e-05 2.0478026761546168e-05 2.3282959857682091e-05 0.001 -0.00019999999999999998 0.00029999999999999997
388 2.253686817591625e-06 2.5609866192273647e-05 2.0478026761546168e-05 3.1282959857682089e-05 0.001 -0.00020000000000000001 0.00029999999999999997
389 1.0290285199744962e-06 2.5609866192273647e-05 2.0478026761546168e-05 3.9282959857682094e-05 0.001 -0.00019999999999999998 0.00029999999999999997
390 2.6055116126234231e-06 2.5609866192273647e-05 2.0478026761546168e-05 4.7282959857682085e-05 0.001 -0.00019999999999999998 0.00029999999999999997
391 1.670989415032867e-06 2.5609866192273647e-05 2.8478026761544184e-05 -2.4717040142317903e-05 0.001 -0.00020000000000000001 0.00029999999999999997
392 2.7900882382596568e-06 2.5609866192273647e-05 2.8478026761544184e-05 -1.6717040142317905e-05 0.001 -0.00020000000000000001 0.00029999999999999997
393 2.1391493302021169e-06 2.5609866192273647e-05 2.8478026761544184e-05 -8.7170401423179074e-06 0.001 -0.00020000000000000001 0.00029999999999999997
394 3.4566140892822647e-06 2.5609866192273647e-05 2.8478026761544184e-05 -7.1704014231790608e-07 0.001 -0.00020000000000000001 0.00029999999999999997
395 3.6924892979749348e-06 2.5609866192273647e-05 2.8478026761544184e-05 7.282959857682091e-06 0.001 -0.00020000000000000001 0.00029999999999999997
396 1.3964168873970311e-06 2.5609866192273647e-05 2.8478026761544184e-05 1.5282959857682093e-05 0.001 -0.00020000000000000001 0.00030000000000000003
397 2.6085707422979119e-06 2.5609866192273647e-05 2.8478026761544184e-05 2.3282959857682091e-05 0.001 -0.00020000000000000001 0.00029999999999999997
398 2.8299661767423474e-06 2.5609866192273647e-05 2.8478026761544184e-05 3.1282959857682089e-05 0.001 -0.00020000000000000001 0.00029999999999999997
399 2.3947210017712472e-06 2.5609866192273647e-05 2.8478026761544184e-05 3.9282959857682094e-05 0.001 -0.00020000000000000001 0.00029999999999999997
400 2.0234969649813887e-06 2.5609866192273647e-05 2.8478026761544184e-05 4.7282959857682085e-05 0.001 -0.00020000000000000001 0.00029999999999999997
401 1.5614055257142637e-06 3.3609866192273713e-05 -4.352197323845654e-05 -2.4717040142317903e-05 0.001 -0.00020000000000000001 0.00029999999999999997
402 9.8716356562093542e-07 3.3609866192273713e-05 -4.352197323845654e-05 -1.6717040142317905e-05 0.001 -0.00019999999999999998 0.00029999999999999997
403 2.3550852084981827e-06 3.3609866192273713e-05 -4.352197323845654e-05 -8.7170401423179074e-06 0.001 -0.00019999999999999998 0.00029999999999999997
404 1.4392536573456221e-06 3.3609866192273713e-05 -4.352197323845654e-05 -7.1704014231790608e-07 0.001 -0.00019999999999999998 0.00029999999999999997
405 1.6948612737330033e-06 3.3609866192273713e-05 -4.352197323845654e-05 7.282959857682091e-06 0.001 -0.00019999999999999998 0.00029999999999999997
406 1.9270444997090154e-06 3.3609866192273713e-05 -4.352197323845654e-05 1.5282959857682093e-05 0.001 -0.00020000000000000001 0.00029999999999999997
407 1.2688428468405635e-06 3.3609866192273713e-05 -4.352197323845654e-05 2.3282959857682091e-05 0.001 -0.00019999999999999998 0.00029999999999999997
408 2.7370142971968804e-06 3.3609866192273713e-05 -4.352197323845654e-05 3.1282959857682089e-05 0.001 -0.00020000000000000001 0.00030000000000000003
409 1.7184815807945025e-06 3.3609866192273713e-05 -4.352197323845654e-05 3.9282959857682094e-05 0.001 -0.00019999999999999998 0.00029999999999999997
410 1.2646290645971704e-06 3.3609866192273713e-05 -4.352197323845654e-05 4.7282959857682085e-05 0.001 -0.00019999999999999998 0.00029999999999999997
411 3.4155002274426453e-06 3.3609866192273713e-05 -3.5521973238455634e-05 -2.4717040142317903e-05 0.001 -0.00020000000000000001 0.00029999999999999992
412 2.4123144911297044e-06 3.3609866192273713e-05 -3.5521973238455634e-05 -1.6717040142317905e-05 0.001 -0.00019999999999999998 0.00029999999999999997
413 2.9812419534965472e-06 3.3609866192273713e-05 -3.5521973238455634e-05 -8.7170401423179074e-06 0.001 -0.00019999999999999998 0.00029999999999999997
414 2.1126105007735989e-06 3.3609866192273713e-05 -3.5521973238455634e-05 -7.1704014231790608e-07 0.001 -0.00019999999999999998 0.00029999999999999997
415 3.1014110521605554e-06 3.3609866192273713e-05 -3.5521973238455634e-05 7.282959857682091e-06 0.001 -0.00019999999999999998 0.00029999999999999997
416 1.2977262931691708e-06 3.3609866192273713e-05 -3.5521973238455634e-05 1.5282959857682093e-05 0.001 -0.00020000000000000004 0.00029999999999999997
417 3.3235081316175433e-06 3.3609866192273713e-05 -3.5521973238455634e-05 2.3282959857682091e-05 0.001 -0.00019999999999999998 0.00029999999999999997
418 1.7509539128724085e-06 3.3609866192273713e-05 -3.5521973238455634e-05 3.1282959857682089e-05 0.001 -0.00020000000000000001 0.00029999999999999997
419 1.978883554001299e-06 3.3609866192273713e-05 -3.5521973238455634e-05 3.9282959857682094e-05 0.001 -0.00019999999999999998 0.00029999999999999997
420 2.3451993140327605e-06 3.3609866192273713e-05 -3.5521973238455634e-05 4.7282959857682085e-05 0.001 -0.00019999999999999998 0.00029999999999999997
421 2.0811374129604825e-06 3.3609866192273713e-05 -2.7521973238453833e-05 -2.4717040142317903e-05 0.001 -0.00020000000000000004 0.00029999999999999997
422 1.4284522474606962e-06 3.3609866192273713e-05 -2.7521973238453833e-05 -1.6717040142317905e-05 0.001 -0.00019999999999999998 0.00029999999999999997
423 1.6896874120647491e-06 3.3609866192273713e-05 -2.7521973238453833e-05 -8.7170401423179074e-06 0.001 -0.00019999999999999998 0.00029999999999999997
424 1.0226740106956389e-06 3.3609866192273713e-05 -2.7521973238453833e-05 -7.1704014231790608e-07 0.001 -0.00019999999999999998 0.00029999999999999997
425 1.9912772130620987e-06 3.3609866192273713e-05 -2.7521973238453833e-05 7.282959857682091e-06 0.001 -0.00019999999999999998 0.00029999999999999997
426 1.8403596208516955e-06 3.3609866192273713e-05 -2.7521973238453833e-05 1.5282959857682093e-05 0.001 -0.00020000000000000001 0.00029999999999999997
427 3.125539912292887e-06 3.3609866192273713e-05 -2.7521973238453833e-05 2.3282959857682091e-05 0.001 -0.00019999999999999998 0.00029999999999999997
428 2.2454145838222409e-06 3.3609866192273713e-05 -2.7521973238453833e-05 3.1282959857682089e-05 0.001 -0.00020000000000000001 0.00029999999999999997
429 2.0782447132558973e-06 3.3609866192273713e-05 -2.7521973238453833e-05 3.9282959857682094e-05 0.001 -0.00019999999999999998 0.00029999999999999997
430 1.2694251408355582e-06 3.3609866192273713e-05 -2.7521973238453833e-05 4.7282959857682085e-05 0.001 -0.00019999999999999998 0.00029999999999999997
431 1.3544175888064367e-06 3.3609866192273713e-05 -1.9521973238454418e-05 -2.4717040142317903e-05 0.001 -0.00020000000000000001 0.00029999999999999992
432 1.9343792416260002e-06 3.3609866192273713e-05 -1.9521973238454418e-05 -1.6717040142317905e-05 0.001 -0.00019999999999999998 0.00029999999999999997
433 1.7889581186199937e-06 3.3609866192273713e-05 -1.9521973238454418e-05 -8.7170401423179074e-06 0.001 -0.00019999999999999998 0.00029999999999999997
434 1.6191680144957933e-06 3.3609866192273713e-05 -1.9521973238454418e-05 -7.1704014231790608e-07 0.001 -0.00019999999999999998 0.00029999999999999997
435 1.6706673288185987e-06 3.3609866192273713e-05 -1.9521973238454418e-05 7.282959857682091e-06 0.001 -0.00019999999999999998 0.00029999999999999997
436 1.3807507486105702e-06 3.3609866192273713e-05 -1.9521973238454418e-05 1.5282959857682093e-05 0.001 -0.00020000000000000001 0.00029999999999999997
437 3.1789417728010201e-06 3.3609866192273713e-05 -1.9521973238454418e-05 2.3282959857682091e-05 0.001 -0.00019999999999999998 0.00029999999999999997
438 1.2427879118251014e-06 3.3609866192273713e-05 -1.9521973238454418e-05 3.1282959857682089e-05 0.001 -0.00020000000000000001 0.00029999999999999997
439 1.7348989470160775e-06 3.3609866192273713e-05 -1.9521973238454418e-05 3.9282959857682094e-05 0.001 -0.00019999999999999998 0.00029999999999999997
440 1.2530147793543768e-06 3.3609866192273713e-05 -1.9521973238454418e-05 4.7282959857682085e-05 0.001 -0.00019999999999999998 0.00029999999999999997
441 1.6797110582037619e-06 3.3609866192273713e-05 -1.1521973238454859e-05 -2.4717040142317903e-05 0.001 -0.00020000000000000001 0.00029999999999999997
442 2.0425108803337708e-06 3.3609866192273713e-05 -1.1521973238454859e-05 -1.6717040142317905e-05 0.001 -0.00020000000000000001 0.00029999999999999997
443 1.889894788234264e-06 3.3609866192273713e-05 -1.1521973238454859e-05 -8.7170401423179074e-06 0.001 -0.00020000000000000001 0.00029999999999999997
444 2.3933116370166558e-06 3.3609866192273713e-05 -1.1521973238454859e-05 -7.1704014231790608e-07 0.001 -0.00020000000000000001 0.00029999999999999997
445 1.5280115994350821e-06 3.3609866192273713e-05 -1.1521973238454859e-05 7.282959857682091e-06 0.001 -0.00020000000000000001 0.00029999999999999997
446 1.4437758904219182e-06 3.3609866192273713e-05 -1.1521973238454859e-05 1.5282959857682093e-05 0.001 -0.00019999999999999998 0.00029999999999999997
447 2.9386826595668012e-06 3.3609866192273713e-05 -1.1521973238454859e-05 2.3282959857682091e-05 0.001 -0.00020000000000000001 0.00029999999999999997
448 2.6710969688108398e-06 3.3609866192273713e-05 -1.1521973238454859e-05 3.1282959857682089e-05 0.001 -0.00019999999999999998 0.00029999999999999997
449 1.4236236439104574e-06 3.3609866192273713e-05 -1.1521973238454859e-05 3.9282959857682094e-05 0.001 -0.00020000000000000001 0.00029999999999999997
450 1.6878181949150284e-06 3.3609866192273713e-05 -1.1521973238454859e-05 4.7282959857682085e-05 0.001 -0.00020000000000000001 0.00029999999999999997
451 2.4812734942200512e-06 3.3609866192273713e-05 -3.5219732384547597e-06 -2.4717040142317903e-05 0.001 -0.00019999999999999998 0.00029999999999999997
452 1.2108042503537179e-06 3.3609866192273713e-05 -3.5219732384547597e-06 -1.6717040142317905e-05 0.001 -0.00020000000000000001 0.00029999999999999997
453 3.3010741831599847e-06 3.3609866192273713e-05 -3.5219732384547597e-06 -8.7170401423179074e-06 0.001 -0.00020000000000000001 0.00029999999999999997
454 1.2837859340306623e-06 3.3609866192273713e-05 -3.5219732384547597e-06 -7.1704014231790608e-07 0.001 -0.00020000000000000001 0.00029999999999999997
455 2.7224979862718818e-06 3.3609866192273713e-05 -3.5219732384547597e-06 7.282959857682091e-06 0.001 -0.00020000000000000001 0.00029999999999999997
456 2.2797373967184632e-06 3.3609866192273713e-05 -3.5219732384547597e-06 1.5282959857682093e-05 0.001 -0.00020000000000000001 0.00030000000000000003
457 2.2923631384267883e-06 3.3609866192273713e-05 -3.5219732384547597e-06 2.3282959857682091e-05 0.001 -0.00020000000000000001 0.00029999999999999997
458 2.2585756127876275e-06 3.3609866192273713e-05 -3.5219732384547597e-06 3.1282959857682089e-05 0.001 -0.00019999999999999998 0.00029999999999999997
459 1.6637049158240032e-06 3.3609866192273713e-05 -3.5219732384547597e-06 3.9282959857682094e-05 0.001 -0.00020000000000000001 0.00029999999999999997
460 2.6900621764901499e-06 3.3609866192273713e-05 -3.5219732384547597e-06 4.7282959857682085e-05 0.001 -0.00020000000000000001 0.00029999999999999997
461 1.4015283114899325e-06 3.3609866192273713e-05 4.4780267615450946e-06 -2.4717040142317903e-05 0.001 -0.00019999999999999998 0.00029999999999999997
462 1.8191335759516225e-06 3.3609866192273713e-05 4.4780267615450946e-06 -1.6717040142317905e-05 0.001 -0.00020000000000000004 0.00029999999999999997
463 4.2353696718628292e-06 3.3609866192273713e-05 4.4780267615450946e-06 -8.7170401423179074e-06 0.001 -0.00020000000000000004 0.00029999999999999997
464 1.3545684299661174e-06 3.3609866192273713e-05 4.4780267615450946e-06 -7.1704014231790608e-07 0.001 -0.00020000000000000004 0.00029999999999999997
465 2.1523620653712569e-06 3.3609866192273713e-05 4.4780267615450946e-06 7.282959857682091e-06 0.001 -0.00020000000000000004 0.00029999999999999997
466 1.4496839155106529e-06 3.3609866192273713e-05 4.4780267615450946e-06 1.5282959857682093e-05 0.001 -0.00020000000000000001 0.00029999999999999997
467 1.833514061149265e-06 3.3609866192273713e-05 4.4780267615450946e-06 2.3282959857682091e-05 0.001 -0.00020000000000000004 0.00029999999999999997
468 1.6258599379161733e-06 3.3609866192273713e-05 4.4780267615450946e-06 3.1282959857682089e-05 0.001 -0.00020000000000000001 0.00029999999999999997
469 1.5620159857883544e-06 3.3609866192273713e-05 4.4780267615450946e-06 3.9282959857682094e-05 0.001 -0.00020000000000000004 0.00029999999999999997
470 1.5213629278919835e-06 3.3609866192273713e-05 4.4780267615450946e-06 4.7282959857682085e-05 0.001 -0.00020000000000000004 0.00029999999999999997
471 1.7583614511184387e-06 3.3609866192273713e-05 1.2478026761545662e-05 -2.4717040142317903e-05 0.001 -0.00019999999999999998 0.00029999999999999997
472 2.6647640519139791e-06 3.3609866192273713e-05 1.2478026761545662e-05 -1.6717040142317905e-05 0.001 -0.00019999999999999998 0.00029999999999999997
473 2.4847582530720232e-06 3.3609866192273713e-05 1.2478026761545662e-05 -8.7170401423179074e-06 0.001 -0.00019999999999999998 0.00029999999999999997
474 2.5125862044455853e-06 3.3609866192273713e-05 1.2478026761545662e-05 -7.1704014231790608e-07 0.001 -0.00019999999999999998 0.00029999999999999997
475 1.5364019709468574e-06 3.3609866192273713e-05 1.2478026761545662e-05 7.282959857682091e-06 0.001 -0.00019999999999999998 0.00029999999999999997
476 2.5477192993784751e-06 3.3609866192273713e-05 1.2478026761545662e-05 1.5282959857682093e-05 0.001 -0.00020000000000000001 0.00030000000000000003
477 1.4704004060468826e-06 3.3609866192273713e-05 1.2478026761545662e-05 2.3282959857682091e-05 0.001 -0.00019999999999999998 0.00029999999999999997
478 2.470432078134634e-06 3.3609866192273713e-05 1.2478026761545662e-05 3.1282959857682089e-05 0.001 -0.00019999999999999998 0.00029999999999999997
479 2.9529327093727251e-06 3.3609866192273713e-05 1.2478026761545662e-05 3.9282959857682094e-05 0.001 -0.00019999999999999998 0.00029999999999999997
480 1.6692093345076722e-06 3.3609866192273713e-05 1.2478026761545662e-05 4.7282959857682085e-05 0.001 -0.00019999999999999998 0.00029999999999999997
481 2.3145625811579364e-06 3.3609866192273713e-05 2.0478026761546168e-05 -2.4717040142317903e-05 0.001 -0.00020000000000000004 0.00029999999999999997
482 1.8771645334487106e-06 3.3609866192273713e-05 2.0478026761546168e-05 -1.6717040142317905e-05 0.001 -0.00019999999999999998 0.00029999999999999997
483 1.4303625200187826e-06 3.3609866192273713e-05 2.0478026761546168e-05 -8.7170401423179074e-06 0.001 -0.00019999999999999998 0.00029999999999999997
484 2.9865148057480503e-06 3.3609866192273713e-05 2.0478026761546168e-05 -7.1704014231790608e-07 0.001 -0.00019999999999999998 0.00029999999999999997
485 3.0744370895753547e-06 3.3609866192273713e-05 2.0478026761546168e-05 7.282959857682091e-06 0.001 -0.00019999999999999998 0.00029999999999999997
486 1.6798565092891945e-06 3.3609866192273713e-05 2.0478026761546168e-05 1.5282959857682093e-05 0.001 -0.00020000000000000001 0.00029999999999999997
487 2.1295366995795666e-06 3.3609866192273713e-05 2.0478026761546168e-05 2.3282959857682091e-05 0.001 -0.00019999999999999998 0.00029999999999999997
488 2.5767987205393822e-06 3.3609866192273713e-05 2.0478026761546168e-05 3.1282959857682089e-05 0.001 -0.00020000000000000001 0.00029999999999999997
489 1.2143032639993037e-06 3.3609866192273713e-05 2.0478026761546168e-05 3.9282959857682094e-05 0.001 -0.00019999999999999998 0.00029999999999999997
490 2.4485357467693268e-06 3.3609866192273713e-05 2.0478026761546168e-05 4.7282959857682085e-05 0.001 -0.00019999999999999998 0.00029999999999999997
491 1.4254113045154762e-06 3.3609866192273713e-05 2.8478026761544184e-05 -2.4717040142317903e-05 0.001 -0.00020000000000000001 0.00029999999999999997
492 1.0636553664921102e-06 3.3609866192273713e-05 2.8478026761544184e-05 -1.6717040142317905e-05 0.001 -0.00020000000000000004 0.00030000000000000003
493 2.8803105714690759e-06 3.3609866192273713e-05 2.8478026761544184e-05 -8.7170401423179074e-06 0.001 -0.00020000000000000004 0.00030000000000000003
494 1.7791967901954527e-06 3.3609866192273713e-05 2.8478026761544184e-05 -7.1704014231790608e-07 0.001 -0.00020000000000000004 0.00030000000000000003
495 3.866429302603581e-06 3.3609866192273713e-05 2.8478026761544184e-05 7.282959857682091e-06 0.001 -0.00020000000000000004 0.00030000000000000003
496 1.2616603363691438e-06 3.3609866192273713e-05 2.8478026761544184e-05 1.5282959857682093e-05 0.001 -0.00020000000000000004 0.00029999999999999992
497 2.0971725894081488e-06 3.3609866192273713e-05 2.8478026761544184e-05 2.3282959857682091e-05 0.001 -0.00020000000000000004 0.00030000000000000003
498 1.9074115933867618e-06 3.3609866192273713e-05 2.8478026761544184e-05 3.1282959857682089e-05 0.001 -0.00020000000000000004 0.00029999999999999992
499 1.8474685984526727e-06 3.3609866192273713e-05 2.8478026761544184e-05 3.9282959857682094e-05 0.001 -0.00020000000000000004 0.00030000000000000003
500 1.7938194723908576e-06 3.3609866192273713e-05 2.8478026761544184e-05 4.7282959857682085e-05 0.001 -0.00020000000000000004 0.00030000000000000003
501 2.5982912820422361e-06 4.1609866192273352e-05 -4.352197323845654e-05 -2.4717040142317903e-05 0.001 -0.00020000000000000001 0.00029999999999999997
502 1.8638465333300055e-06 4.1609866192273352e-05 -4.352197323845654e-05 -1.6717040142317905e-05 0.001 -0.00020000000000000001 0.00029999999999999992
503 1.771771468763288e-06 4.1609866192273352e-05 -4.352197323845654e-05 -8.7170401423179074e-06 0.001 -0.00020000000000000001 0.00029999999999999992
504 3.0172770546859814e-06 4.1609866192273352e-05 -4.352197323845654e-05 -7.1704014231790608e-07 0.001 -0.00020000000000000001 0.00029999999999999992
505 2.4405682975052959e-06 4.1609866192273352e-05 -4.352197323845654e-05 7.282959857682091e-06 0.001 -0.00020000000000000001 0.00029999999999999992
506 1.9158738097041659e-06 4.1609866192273352e-05 -4.352197323845654e-05 1.5282959857682093e-05 0.001 -0.00019999999999999998 0.00030000000000000003
507 3.3572236478074978e-06 4.1609866192273352e-05 -4.352197323845654e-05 2.3282959857682091e-05 0.001 -0.00020000000000000001 0.00029999999999999992
508 2.1922607937774078e-06 4.1609866192273352e-05 -4.352197323845654e-05 3.1282959857682089e-05 0.001 -0.00020000000000000001 0.00029999999999999997
509 1.5625172014477212e-06 4.1609866192273352e-05 -4.352197323845654e-05 3.9282959857682094e-05 0.001 -0.00020000000000000001 0.00029999999999999992
510 1.053559180648154e-06 4.1609866192273352e-05 -4.352197323845654e-05 4.7282959857682085e-05 0.001 -0.00020000000000000001 0.00029999999999999992
511 2.2102937675500431e-06 4.1609866192273352e-05 -3.5521973238455634e-05 -2.4717040142317903e-05 0.001 -0.00020000000000000001 0.00029999999999999997
512 2.0195385223996527e-06 4.1609866192273352e-05 -3.5521973238455634e-05 -1.6717040142317905e-05 0.001 -0.00019999999999999998 0.00030000000000000003
513 2.2365108766901249e-06 4.1609866192273352e-05 -3.5521973238455634e-05 -8.7170401423179074e-06 0.001 -0.00019999999999999998 0.00030000000000000003
514 2.5080078836755938e-06 4.1609866192273352e-05 -3.5521973238455634e-05 -7.1704014231790608e-07 0.001 -0.00019999999999999998 0.00030000000000000003
515 1.2645558350635943e-06 4.1609866192273352e-05 -3.5521973238455634e-05 7.282959857682091e-06 0.001 -0.00019999999999999998 0.00030000000000000003
516 3.109236308433164e-06 4.1609866192273352e-05 -3.5521973238455634e-05 1.5282959857682093e-05 0.001 -0.00020000000000000004 0.00029999999999999997
517 2.8067257201523692e-06 4.1609866192273352e-05 -3.5521973238455634e-05 2.3282959857682091e-05 0.001 -0.00019999999999999998 0.00030000000000000003
518 1.7026953652008354e-06 4.1609866192273352e-05 -3.5521973238455634e-05 3.1282959857682089e-05 0.001 -0.00020000000000000001 0.00029999999999999997
519 1.1392019803353507e-06 4.1609866192273352e-05 -3.5521973238455634e-05 3.9282959857682094e-05 0.001 -0.00019999999999999998 0.00030000000000000003
520 1.9457030200193702e-06 4.1609866192273352e-05 -3.5521973238455634e-05 4.7282959857682085e-05 0.001 -0.00019999999999999998 0.00030000000000000003
521 4.0121546767270039e-06 4.1609866192273352e-05 -2.7521973238453833e-05 -2.4717040142317903e-05 0.001 -0.00020000000000000001 0.00029999999999999997
522 1.4228097117902533e-06 4.1609866192273352e-05 -2.7521973238453833e-05 -1.6717040142317905e-05 0.001 -0.00019999999999999998 0.00030000000000000003
523 1.2228161772473428e-06 4.1609866192273352e-05 -2.7521973238453833e-05 -8.7170401423179074e-06 0.001 -0.00019999999999999998 0.00030000000000000003
524 1.6052302189163065e-06 4.1609866192273352e-05 -2.7521973238453833e-05 -7.1704014231790608e-07 0.001 -0.00019999999999999998 0.00030000000000000003
525 1.9535419156300571e-06 4.1609866192273352e-05 -2.7521973238453833e-05 7.282959857682091e-06 0.001 -0.00019999999999999998 0.00030000000000000003
526 1.3824435501862967e-06 4.1609866192273352e-05 -2.7521973238453833e-05 1.5282959857682093e-05 0.001 -0.00020000000000000004 0.00029999999999999997
527 2.9500497669844924e-06 4.1609866192273352e-05 -2.7521973238453833e-05 2.3282959857682091e-05 0.001 -0.00019999999999999998 0.00030000000000000003
528 2.3310039905318715e-06 4.1609866192273352e-05 -2.7521973238453833e-05 3.1282959857682089e-05 0.001 -0.00020000000000000001 0.00030000000000000003
529 1.9465795948077476e-06 4.1609866192273352e-05 -2.7521973238453833e-05 3.9282959857682094e-05 0.001 -0.00019999999999999998 0.00030000000000000003
530 2.0025993511583303e-06 4.1609866192273352e-05 -2.7521973238453833e-05 4.7282959857682085e-05 0.001 -0.00019999999999999998 0.00030000000000000003
531 2.4895335911471004e-06 4.1609866192273352e-05 -1.9521973238454418e-05 -2.4717040142317903e-05 0.001 -0.00019999999999999998 0.00029999999999999997
532 2.0741507972593027e-06 4.1609866192273352e-05 -1.9521973238454418e-05 -1.6717040142317905e-05 0.001 -0.00020000000000000004 0.00030000000000000003
533 2.3581335153092327e-06 4.1609866192273352e-05 -1.9521973238454418e-05 -8.7170401423179074e-06 0.001 -0.00020000000000000004 0.00030000000000000003
534 2.3145376637823806e-06 4.1609866192273352e-05 -1.9521973238454418e-05 -7.1704014231790608e-07 0.001 -0.00020000000000000004 0.00030000000000000003
535 1.2978399156563973e-06 4.1609866192273352e-05 -1.9521973238454418e-05 7.282959857682091e-06 0.001 -0.00020000000000000004 0.00030000000000000003
536 1.3544776351060026e-06 4.1609866192273352e-05 -1.9521973238454418e-05 1.5282959857682093e-05 0.001 -0.00020000000000000001 0.00029999999999999997
537 1.6896063264888496e-06 4.1609866192273352e-05 -1.9521973238454418e-05 2.3282959857682091e-05 0.001 -0.00020000000000000004 0.00030000000000000003
538 1.715546969763233e-06 4.1609866192273352e-05 -1.9521973238454418e-05 3.1282959857682089e-05 0.001 -0.00019999999999999998 0.00029999999999999997
539 1.178060381723717e-06 4.1609866192273352e-05 -1.9521973238454418e-05 3.9282959857682094e-05 0.001 -0.00020000000000000004 0.00030000000000000003
540 9.6960999950228541e-07 4.1609866192273352e-05 -1.9521973238454418e-05 4.7282959857682085e-05 0.001 -0.00020000000000000004 0.00030000000000000003
541 1.6248157195885694e-06 4.1609866192273352e-05 -1.1521973238454859e-05 -2.4717040142317903e-05 0.001 -0.00020000000000000001 0.00029999999999999992
542 4.6492266189967326e-06 4.1609866192273352e-05 -1.1521973238454859e-05 -1.6717040142317905e-05 0.001 -0.00020000000000000001 0.00030000000000000003
543 2.8700189585992288e-06 4.1609866192273352e-05 -1.1521973238454859e-05 -8.7170401423179074e-06 0.001 -0.00020000000000000001 0.00030000000000000003
544 1.8346204254069716e-06 4.1609866192273352e-05 -1.1521973238454859e-05 -7.1704014231790608e-07 0.001 -0.00020000000000000001 0.00030000000000000003
545 1.4850080011833067e-06 4.1609866192273352e-05 -1.1521973238454859e-05 7.282959857682091e-06 0.001 -0.00020000000000000001 0.00030000000000000003
546 1.4069241312911381e-06 4.1609866192273352e-05 -1.1521973238454859e-05 1.5282959857682093e-05 0.001 -0.00020000000000000001 0.00029999999999999997
547 1.8238915552364518e-06 4.1609866192273352e-05 -1.1521973238454859e-05 2.3282959857682091e-05 0.001 -0.00020000000000000001 0.00030000000000000003
548 2.0685894350334484e-06 4.1609866192273352e-05 -1.1521973238454859e-05 3.1282959857682089e-05 0.001 -0.00020000000000000001 0.00029999999999999997
549 1.9451530438060307e-06 4.1609866192273352e-05 -1.1521973238454859e-05 3.9282959857682094e-05 0.001 -0.00020000000000000001 0.00030000000000000003
550 1.6520758804580915e-06 4.1609866192273352e-05 -1.1521973238454859e-05 4.7282959857682085e-05 0.001 -0.00020000000000000001 0.00030000000000000003
551 1.5817210412601797e-06 4.1609866192273352e-05 -3.5219732384547597e-06 -2.4717040142317903e-05 0.001 -0.00020000000000000001 0.00029999999999999997
552 2.0031045036556893e-06 4.1609866192273352e-05 -3.5219732384547597e-06 -1.6717040142317905e-05 0.001 -0.00020000000000000001 0.00029999999999999992
553 1.7070303164287469e-06 4.1609866192273352e-05 -3.5219732384547597e-06 -8.7170401423179074e-06 0.001 -0.00020000000000000001 0.00029999999999999992
554 2.069854850146644e-06 4.1609866192273352e-05 -3.5219732384547597e-06 -7.1704014231790608e-07 0.001 -0.00020000000000000001 0.00029999999999999992
555 1.2463098239274469e-06 4.1609866192273352e-05 -3.5219732384547597e-06 7.282959857682091e-06 0.001 -0.00020000000000000001 0.00029999999999999992
556 2.2670834649566865e-06 4.1609866192273352e-05 -3.5219732384547597e-06 1.5282959857682093e-05 0.001 -0.00020000000000000004 0.00030000000000000003
557 3.3331942848334158e-06 4.1609866192273352e-05 -3.5219732384547597e-06 2.3282959857682091e-05 0.001 -0.00020000000000000001 0.00029999999999999992
558 1.8238203206254852e-06 4.1609866192273352e-05 -3.5219732384547597e-06 3.1282959857682089e-05 0.001 -0.00020000000000000001 0.00029999999999999997
559 1.5393438817466755e-06 4.1609866192273352e-05 -3.5219732384547597e-06 3.9282959857682094e-05 0.001 -0.00020000000000000001 0.00029999999999999992
560 2.723127016345398e-06 4.1609866192273352e-05 -3.5219732384547597e-06 4.7282959857682085e-05 0.001 -0.00020000000000000001 0.00029999999999999992
561 2.0089987182103852e-06 4.1609866192273352e-05 4.4780267615450946e-06 -2.4717040142317903e-05 0.001 -0.00020000000000000001 0.00029999999999999997
562 2.3894832748011664e-06 4.1609866192273352e-05 4.4780267615450946e-06 -1.6717040142317905e-05 0.001 -0.00019999999999999998 0.00029999999999999992
563 2.023226444444698e-06 4.1609866192273352e-05 4.4780267615450946e-06 -8.7170401423179074e-06 0.001 -0.00019999999999999998 0.00029999999999999992
564 1.5230483862595801e-06 4.1609866192273352e-05 4.4780267615450946e-06 -7.1704014231790608e-07 0.001 -0.00019999999999999998 0.00029999999999999992
565 1.6351873433046978e-06 4.1609866192273352e-05 4.4780267615450946e-06 7.282959857682091e-06 0.001 -0.00019999999999999998 0.00029999999999999992
566 3.8955529518777427e-06 4.1609866192273352e-05 4.4780267615450946e-06 1.5282959857682093e-05 0.001 -0.00020000000000000004 0.00030000000000000003
567 2.1948846934905729e-06 4.1609866192273352e-05 4.4780267615450946e-06 2.3282959857682091e-05 0.001 -0.00019999999999999998 0.00029999999999999992
568 1.8212518688960594e-06 4.1609866192273352e-05 4.4780267615450946e-06 3.1282959857682089e-05 0.001 -0.00020000000000000001 0.00029999999999999997
569 1.4946345524155495e-06 4.1609866192273352e-05 4.4780267615450946e-06 3.9282959857682094e-05 0.001 -0.00019999999999999998 0.00029999999999999992
570 1.9704369430794425e-06 4.1609866192273352e-05 4.4780267615450946e-06 4.7282959857682085e-05 0.001 -0.00019999999999999998 0.00029999999999999992
571 2.2497714265193027e-06 4.1609866192273352e-05 1.2478026761545662e-05 -2.4717040142317903e-05 0.001 -0.00020000000000000001 0.00029999999999999997
572 1.6878994612215896e-06 4.1609866192273352e-05 1.2478026761545662e-05 -1.6717040142317905e-05 0.001 -0.00019999999999999998 0.00029999999999999992
573 1.7830891188917426e-06 4.1609866192273352e-05 1.2478026761545662e-05 -8.7170401423179074e-06 0.001 -0.00019999999999999998 0.00029999999999999992
574 1.3231991747563295e-06 4.1609866192273352e-05 1.2478026761545662e-05 -7.1704014231790608e-07 0.001 -0.00019999999999999998 0.00029999999999999992
575 1.3989953907270665e-06 4.1609866192273352e-05 1.2478026761545662e-05 7.282959857682091e-06 0.001 -0.00019999999999999998 0.00029999999999999992
576 2.0882706410467246e-06 4.1609866192273352e-05 1.2478026761545662e-05 1.5282959857682093e-05 0.0010000000000000002 -0.00020000000000000004 0.00030000000000000003
577 2.0391339361592095e-06 4.1609866192273352e-05 1.2478026761545662e-05 2.3282959857682091e-05 0.001 -0.00019999999999999998 0.00029999999999999992
578 1.3438325296351592e-06 4.1609866192273352e-05 1.2478026761545662e-05 3.1282959857682089e-05 0.001 -0.00020000000000000001 0.00029999999999999992
579 1.7852299245247604e-06 4.1609866192273352e-05 1.2478026761545662e-05 3.9282959857682094e-05 0.001 -0.00019999999999999998 0.00029999999999999992
580 2.5393821449456778e-06 4.1609866192273352e-05 1.2478026761545662e-05 4.7282959857682085e-05 0.001 -0.00019999999999999998 0.00029999999999999992
581 1.7489426556428653e-06 4.1609866192273352e-05 2.0478026761546168e-05 -2.4717040142317903e-05 0.001 -0.00020000000000000001 0.00029999999999999997
582 1.8608195515884659e-06 4.1609866192273352e-05 2.0478026761546168e-05 -1.6717040142317905e-05 0.001 -0.00019999999999999998 0.00030000000000000003
583 2.3308366777311929e-06 4.1609866192273352e-05 2.0478026761546168e-05 -8.7170401423179074e-06 0.001 -0.00019999999999999998 0.00030000000000000003
584 1.957791429668064e-06 4.1609866192273352e-05 2.0478026761546168e-05 -7.1704014231790608e-07 0.001 -0.00019999999999999998 0.00030000000000000003
585 2.53007400694616e-06 4.1609866192273352e-05 2.0478026761546168e-05 7.282959857682091e-06 0.001 -0.00019999999999999998 0.00030000000000000003
586 1.1652704185504356e-06 4.1609866192273352e-05 2.0478026761546168e-05 1.5282959857682093e-05 0.001 -0.00020000000000000004 0.00029999999999999997
587 2.9001691157747557e-06 4.1609866192273352e-05 2.0478026761546168e-05 2.3282959857682091e-05 0.001 -0.00019999999999999998 0.00030000000000000003
588 2.1433007776604113e-06 4.1609866192273352e-05 2.0478026761546168e-05 3.1282959857682089e-05 0.001 -0.00020000000000000001 0.00030000000000000003
589 1.8690219985038268e-06 4.1609866192273352e-05 2.0478026761546168e-05 3.9282959857682094e-05 0.001 -0.00019999999999999998 0.00030000000000000003
590 1.8391132775005688e-06 4.1609866192273352e-05 2.0478026761546168e-05 4.7282959857682085e-05 0.001 -0.00019999999999999998 0.00030000000000000003
591 2.798959669327844e-06 4.1609866192273352e-05 2.8478026761544184e-05 -2.4717040142317903e-05 0.001 -0.00020000000000000001 0.00030000000000000003
592 1.6166994911428602e-06 4.1609866192273352e-05 2.8478026761544184e-05 -1.6717040142317905e-05 0.001 -0.00019999999999999998 0.00029999999999999997
593 2.8186744337507648e-06 4.1609866192273352e-05 2.8478026761544184e-05 -8.7170401423179074e-06 0.001 -0.00019999999999999998 0.00029999999999999997
594 2.2952783469491909e-06 4.1609866192273352e-05 2.8478026761544184e-05 -7.1704014231790608e-07 0.001 -0.00019999999999999998 0.00029999999999999997
595 1.5719133310876773e-06 4.1609866192273352e-05 2.8478026761544184e-05 7.282959857682091e-06 0.001 -0.00019999999999999998 0.00029999999999999997
596 1.2938240643405077e-06 4.1609866192273352e-05 2.8478026761544184e-05 1.5282959857682093e-05 0.001 -0.00020000000000000001 0.00029999999999999992
597 2.627056309927867e-06 4.1609866192273352e-05 2.8478026761544184e-05 2.3282959857682091e-05 0.001 -0.00019999999999999998 0.00029999999999999997
598 3.7169718944576155e-06 4.1609866192273352e-05 2.8478026761544184e-05 3.1282959857682089e-05 0.001 -0.00020000000000000001 0.00029999999999999997
599 2.1932996295243152e-06 4.1609866192273352e-05 2.8478026761544184e-05 3.9282959857682094e-05 0.001 -0.00019999999999999998 0.00029999999999999997
600 2.5146278796251722e-06 4.1609866192273352e-05 2.8478026761544184e-05 4.7282959857682085e-05 0.001 -0.00019999999999999998 0.00029999999999999997
601 2.7734491961574839e-06 4.9609866192273058e-05 -4.352197323845654e-05 -2.4717040142317903e-05 0.001 -0.00019999999999999998 0.00029999999999999997
602 1.3760803611134053e-06 4.9609866192273058e-05 -4.352197323845654e-05 -1.6717040142317905e-05 0.001 -0.00020000000000000001 0.00029999999999999992
603 3.5386846555281221e-06 4.9609866192273058e-05 -4.352197323845654e-05 -8.7170401423179074e-06 0.001 -0.00020000000000000001 0.00029999999999999992
604 1.4813896996148105e-06 4.9609866192273058e-05 -4.352197323845654e-05 -7.1704014231790608e-07 0.001 -0.00020000000000000001 0.00029999999999999992
605 2.7162135119941392e-06 4.9609866192273058e-05 -4.352197323845654e-05 7.282959857682091e-06 0.001 -0.00020000000000000001 0.00029999999999999992
606 2.1935720255275898e-06 4.9609866192273058e-05 -4.352197323845654e-05 1.5282959857682093e-05 0.001 -0.00020000000000000001 0.00029999999999999997
607 2.1310255708387263e-06 4.9609866192273058e-05 -4.352197323845654e-05 2.3282959857682091e-05 0.001 -0.00020000000000000001 0.00029999999999999992
608 2.9262683248995635e-06 4.9609866192273058e-05 -4.352197323845654e-05 3.1282959857682089e-05 0.001 -0.00020000000000000001 0.00029999999999999997
609 3.045792198290985e-06 4.9609866192273058e-05 -4.352197323845654e-05 3.9282959857682094e-05 0.001 -0.00020000000000000001 0.00029999999999999992
610 3.0955650003959741e-06 4.9609866192273058e-05 -4.352197323845654e-05 4.7282959857682085e-05 0.001 -0.00020000000000000001 0.00029999999999999992
611 1.4152411192600984e-06 4.9609866192273058e-05 -3.5521973238455634e-05 -2.4717040142317903e-05 0.001 -0.00020000000000000001 0.00029999999999999997
612 1.8010864789794838e-06 4.9609866192273058e-05 -3.5521973238455634e-05 -1.6717040142317905e-05 0.001 -0.00020000000000000001 0.00029999999999999992
613 1.121637392095589e-06 4.9609866192273058e-05 -3.5521973238455634e-05 -8.7170401423179074e-06 0.001 -0.00020000000000000001 0.00029999999999999992
614 3.6510645979514961e-06 4.9609866192273058e-05 -3.5521973238455634e-05 -7.1704014231790608e-07 0.001 -0.00020000000000000001 0.00029999999999999992
615 2.5316924369919187e-06 4.9609866192273058e-05 -3.5521973238455634e-05 7.282959857682091e-06 0.001 -0.00020000000000000001 0.00029999999999999992
616 1.4484867359571157e-06 4.9609866192273058e-05 -3.5521973238455634e-05 1.5282959857682093e-05 0.001 -0.00020000000000000001 0.00030000000000000003
617 2.655039354043561e-06 4.9609866192273058e-05 -3.5521973238455634e-05 2.3282959857682091e-05 0.001 -0.00020000000000000001 0.00029999999999999992
618 2.4091796947589279e-06 4.9609866192273058e-05 -3.5521973238455634e-05 3.1282959857682089e-05 0.001 -0.00020000000000000001 0.00029999999999999997
619 3.144161182672882e-06 4.9609866192273058e-05 -3.5521973238455634e-05 3.9282959857682094e-05 0.001 -0.00020000000000000001 0.00029999999999999992
620 2.7426213561242112e-06 4.9609866192273058e-05 -3.5521973238455634e-05 4.7282959857682085e-05 0.001 -0.00020000000000000001 0.00029999999999999992
621 1.5765543333110554e-06 4.9609866192273058e-05 -2.7521973238453833e-05 -2.4717040142317903e-05 0.001 -0.00020000000000000001 0.00029999999999999997
622 1.3521111392103818e-06 4.9609866192273058e-05 -2.7521973238453833e-05 -1.6717040142317905e-05 0.001 -0.00019999999999999998 0.00029999999999999997
623 2.5439094712636789e-06 4.9609866192273058e-05 -2.7521973238453833e-05 -8.7170401423179074e-06 0.001 -0.00019999999999999998 0.00029999999999999997
624 2.5834375204846861e-06 4.9609866192273058e-05 -2.7521973238453833e-05 -7.1704014231790608e-07 0.001 -0.00019999999999999998 0.00029999999999999997
625 1.4602988739095106e-06 4.9609866192273058e-05 -2.7521973238453833e-05 7.282959857682091e-06 0.001 -0.00019999999999999998 0.00029999999999999997
626 2.7990633275838857e-06 4.9609866192273058e-05 -2.7521973238453833e-05 1.5282959857682093e-05 0.001 -0.00020000000000000001 0.00029999999999999992
627 2.6740120984437951e-06 4.9609866192273058e-05 -2.7521973238453833e-05 2.3282959857682091e-05 0.001 -0.00019999999999999998 0.00029999999999999997
628 1.3415526650763142e-06 4.9609866192273058e-05 -2.7521973238453833e-05 3.1282959857682089e-05 0.001 -0.00020000000000000001 0.00029999999999999997
629 1.4368734316174534e-06 4.9609866192273058e-05 -2.7521973238453833e-05 3.9282959857682094e-05 0.001 -0.00019999999999999998 0.00029999999999999997
630 2.2136053641000624e-06 4.9609866192273058e-05 -2.7521973238453833e-05 4.7282959857682085e-05 0.001 -0.00019999999999999998 0.00029999999999999997
631 1.893634957940618e-06 4.9609866192273058e-05 -1.9521973238454418e-05 -2.4717040142317903e-05 0.001 -0.00020000000000000001 0.00029999999999999997
632 1.3059155336634574e-06 4.9609866192273058e-05 -1.9521973238454418e-05 -1.6717040142317905e-05 0.001 -0.00019999999999999998 0.00029999999999999992
633 1.7877572514162323e-06 4.9609866192273058e-05 -1.9521973238454418e-05 -8.7170401423179074e-06 0.001 -0.00019999999999999998 0.00029999999999999992
634 1.3539984975448934e-06 4.9609866192273058e-05 -1.9521973238454418e-05 -7.1704014231790608e-07 0.001 -0.00019999999999999998 0.00029999999999999992
635 2.0322870917387371e-06 4.9609866192273058e-05 -1.9521973238454418e-05 7.282959857682091e-06 0.001 -0.00019999999999999998 0.00029999999999999992
636 1.7695537852798509e-06 4.9609866192273058e-05 -1.9521973238454418e-05 1.5282959857682093e-05 0.001 -0.00019999999999999998 0.00029999999999999997
637 1.9393659045130457e-06 4.9609866192273058e-05 -1.9521973238454418e-05 2.3282959857682091e-05 0.001 -0.00019999999999999998 0.00029999999999999992
638 1.567047994869599e-06 4.9609866192273058e-05 -1.9521973238454418e-05 3.1282959857682089e-05 0.001 -0.00020000000000000001 0.00029999999999999997
639 2.769090038712533e-06 4.9609866192273058e-05 -1.9521973238454418e-05 3.9282959857682094e-05 0.001 -0.00019999999999999998 0.00029999999999999992
640 2.1515561931397626e-06 4.9609866192273058e-05 -1.9521973238454418e-05 4.7282959857682085e-05 0.001 -0.00019999999999999998 0.00029999999999999992
641 2.8448543539709047e-06 4.9609866192273058e-05 -1.1521973238454859e-05 -2.4717040142317903e-05 0.001 -0.00020000000000000004 0.00029999999999999997
642 1.5433991543828593e-06 4.9609866192273058e-05 -1.1521973238454859e-05 -1.6717040142317905e-05 0.001 -0.00020000000000000001 0.00029999999999999997
643 1.7487826799113376e-06 4.9609866192273058e-05 -1.1521973238454859e-05 -8.7170401423179074e-06 0.001 -0.00020000000000000001 0.00029999999999999997
644 1.9766746690992557e-06 4.9609866192273058e-05 -1.1521973238454859e-05 -7.1704014231790608e-07 0.001 -0.00020000000000000001 0.00029999999999999997
645 1.9842551154017817e-06 4.9609866192273058e-05 -1.1521973238454859e-05 7.282959857682091e-06 0.001 -0.00020000000000000001 0.00029999999999999997
646 1.7033063592329268e-06 4.9609866192273058e-05 -1.1521973238454859e-05 1.5282959857682093e-05 0.001 -0.00020000000000000001 0.00029999999999999997
647 1.9762037570597808e-06 4.9609866192273058e-05 -1.1521973238454859e-05 2.3282959857682091e-05 0.001 -0.00020000000000000001 0.00029999999999999997
648 1.1668305723384267e-06 4.9609866192273058e-05 -1.1521973238454859e-05 3.1282959857682089e-05 0.001 -0.00020000000000000001 0.00029999999999999997
649 1.3978924829031559e-06 4.9609866192273058e-05 -1.1521973238454859e-05 3.9282959857682094e-05 0.001 -0.00020000000000000001 0.00029999999999999997
650 2.7884177861488358e-06 4.9609866192273058e-05 -1.1521973238454859e-05 4.7282959857682085e-05 0.001 -0.00020000000000000001 0.00029999999999999997
651 1.7262779875864657e-06 4.9609866192273058e-05 -3.5219732384547597e-06 -2.4717040142317903e-05 0.0010000000000000002 -0.00020000000000000001 0.00029999999999999997
652 1.8230802835673709e-06 4.9609866192273058e-05 -3.5219732384547597e-06 -1.6717040142317905e-05 0.001 -0.00019999999999999998 0.00029999999999999997
653 1.5738192000421522e-06 4.9609866192273058e-05 -3.5219732384547597e-06 -8.7170401423179074e-06 0.001 -0.00019999999999999998 0.00029999999999999997
654 1.5680556133561156e-06 4.9609866192273058e-05 -3.5219732384547597e-06 -7.1704014231790608e-07 0.001 -0.00019999999999999998 0.00029999999999999997
655 2.0680811354365727e-06 4.9609866192273058e-05 -3.5219732384547597e-06 7.282959857682091e-06 0.001 -0.00019999999999999998 0.00029999999999999997
656 2.5545844378046549e-06 4.9609866192273058e-05 -3.5219732384547597e-06 1.5282959857682093e-05 0.001 -0.00020000000000000004 0.00029999999999999997
657 2.0032540508953125e-06 4.9609866192273058e-05 -3.5219732384547597e-06 2.3282959857682091e-05 0.001 -0.00019999999999999998 0.00029999999999999997
658 3.6137521700693152e-06 4.9609866192273058e-05 -3.5219732384547597e-06 3.1282959857682089e-05 0.001 -0.00020000000000000001 0.00029999999999999997
659 1.1876272965529566e-06 4.9609866192273058e-05 -3.5219732384547597e-06 3.9282959857682094e-05 0.001 -0.00019999999999999998 0.00029999999999999997
660 1.2029060109211493e-06 4.9609866192273058e-05 -3.5219732384547597e-06 4.7282959857682085e-05 0.001 -0.00019999999999999998 0.00029999999999999997
661 2.130374172876089e-06 4.9609866192273058e-05 4.4780267615450946e-06 -2.4717040142317903e-05 0.001 -0.00020000000000000001 0.00029999999999999997
662 2.1765587654674502e-06 4.9609866192273058e-05 4.4780267615450946e-06 -1.6717040142317905e-05 0.001 -0.00019999999999999998 0.00029999999999999992
663 1.7633441064183295e-06 4.9609866192273058e-05 4.4780267615450946e-06 -8.7170401423179074e-06 0.001 -0.00019999999999999998 0.00029999999999999992
664 1.9070075430838794e-06 4.9609866192273058e-05 4.4780267615450946e-06 -7.1704014231790608e-07 0.001 -0.00019999999999999998 0.00029999999999999992
665 1.3657291367039823e-06 4.9609866192273058e-05 4.4780267615450946e-06 7.282959857682091e-06 0.001 -0.00019999999999999998 0.00029999999999999992
666 3.191868438138306e-06 4.9609866192273058e-05 4.4780267615450946e-06 1.5282959857682093e-05 0.001 -0.00020000000000000001 0.00029999999999999997
667 1.3646567010975841e-06 4.9609866192273058e-05 4.4780267615450946e-06 2.3282959857682091e-05 0.001 -0.00019999999999999998 0.00029999999999999992
668 1.6446802110319802e-06 4.9609866192273058e-05 4.4780267615450946e-06 3.1282959857682089e-05 0.001 -0.00020000000000000001 0.00029999999999999997
669 1.304568146349731e-06 4.9609866192273058e-05 4.4780267615450946e-06 3.9282959857682094e-05 0.001 -0.00019999999999999998 0.00029999999999999992
670 2.7801411282732113e-06 4.9609866192273058e-05 4.4780267615450946e-06 4.7282959857682085e-05 0.001 -0.00019999999999999998 0.00029999999999999992
671 1.1042873068420938e-06 4.9609866192273058e-05 1.2478026761545662e-05 -2.4717040142317903e-05 0.001 -0.00020000000000000001 0.00029999999999999997
672 2.1007329795721292e-06 4.9609866192273058e-05 1.2478026761545662e-05 -1.6717040142317905e-05 0.001 -0.00019999999999999998 0.00029999999999999997
673 2.0178041962513926e-06 4.9609866192273058e-05 1.2478026761545662e-05 -8.7170401423179074e-06 0.001 -0.00019999999999999998 0.00029999999999999997
674 1.3729227852860534e-06 4.9609866192273058e-05 1.2478026761545662e-05 -7.1704014231790608e-07 0.001 -0.00019999999999999998 0.00029999999999999997
675 3.14279397375296e-06 4.9609866192273058e-05 1.2478026761545662e-05 7.282959857682091e-06 0.001 -0.00019999999999999998 0.00029999999999999997
676 1.5322599247911299e-06 4.9609866192273058e-05 1.2478026761545662e-05 1.5282959857682093e-05 0.001 -0.00019999999999999998 0.00030000000000000003
677 1.4399169353175686e-06 4.9609866192273058e-05 1.2478026761545662e-05 2.3282959857682091e-05 0.001 -0.00019999999999999998 0.00029999999999999997
678 1.9632653882881705e-06 4.9609866192273058e-05 1.2478026761545662e-05 3.1282959857682089e-05 0.001 -0.00020000000000000001 0.00029999999999999997
679 1.6328264949212125e-06 4.9609866192273058e-05 1.2478026761545662e-05 3.9282959857682094e-05 0.001 -0.00019999999999999998 0.00029999999999999997
680 2.9606194882332077e-06 4.9609866192273058e-05 1.2478026761545662e-05 4.7282959857682085e-05 0.001 -0.00019999999999999998 0.00029999999999999997
681 1.7905594585193749e-06 4.9609866192273058e-05 2.0478026761546168e-05 -2.4717040142317903e-05 0.001 -0.00020000000000000001 0.00029999999999999997
682 1.3314419144754052e-06 4.9609866192273058e-05 2.0478026761546168e-05 -1.6717040142317905e-05 0.001 -0.00019999999999999998 0.00029999999999999997
683 1.7990221292918782e-06 4.9609866192273058e-05 2.0478026761546168e-05 -8.7170401423179074e-06 0.001 -0.00019999999999999998 0.00029999999999999997
684 1.6948492518441311e-06 4.9609866192273058e-05 2.0478026761546168e-05 -7.1704014231790608e-07 0.001 -0.00019999999999999998 0.00029999999999999997
685 1.9931064411797548e-06 4.9609866192273058e-05 2.0478026761546168e-05 7.282959857682091e-06 0.001 -0.00019999999999999998 0.00029999999999999997
686 3.4993434188696443e-06 4.9609866192273058e-05 2.0478026761546168e-05 1.5282959857682093e-05 0.001 -0.00020000000000000001 0.00029999999999999992
687 2.9329795540893923e-06 4.9609866192273058e-05 2.0478026761546168e-05 2.3282959857682091e-05 0.001 -0.00019999999999999998 0.00029999999999999997
688 2.8664892507787242e-06 4.9609866192273058e-05 2.0478026761546168e-05 3.1282959857682089e-05 0.001 -0.00020000000000000001 0.00029999999999999997
689 1.7141934223720943e-06 4.9609866192273058e-05 2.0478026761546168e-05 3.9282959857682094e-05 0.001 -0.00019999999999999998 0.00029999999999999997
690 1.7340591887859619e-06 4.9609866192273058e-05 2.0478026761546168e-05 4.7282959857682085e-05 0.001 -0.00019999999999999998 0.00029999999999999997
691 2.7190840197106607e-06 4.9609866192273058e-05 2.8478026761544184e-05 -2.4717040142317903e-05 0.001 -0.00020000000000000004 0.00029999999999999992
692 1.8616865728285434e-06 4.9609866192273058e-05 2.8478026761544184e-05 -1.6717040142317905e-05 0.001 -0.00020000000000000001 0.00029999999999999997
693 1.6773736774747611e-06 4.9609866192273058e-05 2.8478026761544184e-05 -8.7170401423179074e-06 0.001 -0.00020000000000000001 0.00029999999999999997
694 1.7416366310035872e-06 4.9609866192273058e-05 2.8478026761544184e-05 -7.1704014231790608e-07 0.001 -0.00020000000000000001 0.00029999999999999997
695 1.5150604665645477e-06 4.9609866192273058e-05 2.8478026761544184e-05 7.282959857682091e-06 0.001 -0.00020000000000000001 0.00029999999999999997
696 1.9097554503898362e-06 4.9609866192273058e-05 2.8478026761544184e-05 1.5282959857682093e-05 0.001 -0.00019999999999999998 0.00029999999999999997
697 3.0167194570217569e-06 4.9609866192273058e-05 2.8478026761544184e-05 2.3282959857682091e-05 0.001 -0.00020000000000000001 0.00029999999999999997
698 1.1075933629338418e-06 4.9609866192273058e-05 2.8478026761544184e-05 3.1282959857682089e-05 0.001 -0.00020000000000000001 0.00030000000000000003
699 1.4193487524475499e-06 4.9609866192273058e-05 2.8478026761544184e-05 3.9282959857682094e-05 0.001 -0.00020000000000000001 0.00029999999999999997
700 2.8598321418357582e-06 4.9609866192273058e-05 2.8478026761544184e-05 4.7282959857682085e-05 0.001 -0.00020000000000000001 0.00029999999999999997
701 2.1806047985283183e-06 5.7609866192272602e-05 -4.352197323845654e-05 -2.4717040142317903e-05 0.001 -0.00020000000000000001 0.00029999999999999997
702 2.3222318863099821e-06 5.7609866192272602e-05 -4.352197323845654e-05 -1.6717040142317905e-05 0.001 -0.00020000000000000004 0.00029999999999999997
703 3.6297563745992012e-06 5.7609866192272602e-05 -4.352197323845654e-05 -8.7170401423179074e-06 0.001 -0.00020000000000000004 0.00029999999999999997
704 3.6581762758470088e-06 5.7609866192272602e-05 -4.352197323845654e-05 -7.1704014231790608e-07 0.001 -0.00020000000000000004 0.00029999999999999997
705 1.2564899134128088e-06 5.7609866192272602e-05 -4.352197323845654e-05 7.282959857682091e-06 0.001 -0.00020000000000000004 0.00029999999999999997
706 2.8187949807963177e-06 5.7609866192272602e-05 -4.352197323845654e-05 1.5282959857682093e-05 0.001 -0.00020000000000000001 0.00029999999999999997
707 1.7436569574924213e-06 5.7609866192272602e-05 -4.352197323845654e-05 2.3282959857682091e-05 0.001 -0.00020000000000000004 0.00029999999999999997
708 1.7130113272663534e-06 5.7609866192272602e-05 -4.352197323845654e-05 3.1282959857682089e-05 0.0009999999999999998 -0.00020000000000000001 0.00029999999999999997
709 2.3327226300415104e-06 5.7609866192272602e-05 -4.352197323845654e-05 3.9282959857682094e-05 0.001 -0.00020000000000000004 0.00029999999999999997
710 4.0044084347353585e-06 5.7609866192272602e-05 -4.352197323845654e-05 4.7282959857682085e-05 0.001 -0.00020000000000000004 0.00029999999999999997
711 2.1318347894846612e-06 5.7609866192272602e-05 -3.5521973238455634e-05 -2.4717040142317903e-05 0.001 -0.00020000000000000001 0.00029999999999999997
712 1.3795631136463626e-06 5.7609866192272602e-05 -3.5521973238455634e-05 -1.6717040142317905e-05 0.001 -0.00020000000000000001 0.00029999999999999997
713 1.1562815454703228e-06 5.7609866192272602e-05 -3.5521973238455634e-05 -8.7170401423179074e-06 0.001 -0.00020000000000000001 0.00029999999999999997
714 1.9604108623357568e-06 5.7609866192272602e-05 -3.5521973238455634e-05 -7.1704014231790608e-07 0.001 -0.00020000000000000001 0.00029999999999999997
715 1.6838373116780016e-06 5.7609866192272602e-05 -3.5521973238455634e-05 7.282959857682091e-06 0.001 -0.00020000000000000001 0.00029999999999999997
716 1.2854970478988256e-06 5.7609866192272602e-05 -3.5521973238455634e-05 1.5282959857682093e-05 0.001 -0.00019999999999999998 0.00029999999999999997
717 1.241629958173179e-06 5.7609866192272602e-05 -3.5521973238455634e-05 2.3282959857682091e-05 0.001 -0.00020000000000000001 0.00029999999999999997
718 1.6550536819694386e-06 5.7609866192272602e-05 -3.5521973238455634e-05 3.1282959857682089e-05 0.001 -0.00020000000000000004 0.00029999999999999997
719 2.604904267027893e-06 5.7609866192272602e-05 -3.5521973238455634e-05 3.9282959857682094e-05 0.001 -0.00020000000000000001 0.00029999999999999997
720 1.1390164478297421e-06 5.7609866192272602e-05 -3.5521973238455634e-05 4.7282959857682085e-05 0.001 -0.00020000000000000001 0.00029999999999999997
721 1.9446630491217308e-06 5.7609866192272602e-05 -2.7521973238453833e-05 -2.4717040142317903e-05 0.001 -0.00020000000000000004 0.00029999999999999992
722 2.1840508694026574e-06 5.7609866192272602e-05 -2.7521973238453833e-05 -1.6717040142317905e-05 0.001 -0.00020000000000000001 0.00029999999999999997
723 2.3501381963742088e-06 5.7609866192272602e-05 -2.7521973238453833e-05 -8.7170401423179074e-06 0.001 -0.00020000000000000001 0.00029999999999999997
724 2.5535041060263513e-06 5.7609866192272602e-05 -2.7521973238453833e-05 -7.1704014231790608e-07 0.001 -0.00020000000000000001 0.00029999999999999997
725 1.3749997894781153e-06 5.7609866192272602e-05 -2.7521973238453833e-05 7.282959857682091e-06 0.001 -0.00020000000000000001 0.00029999999999999997
726 2.3928184508253637e-06 5.7609866192272602e-05 -2.7521973238453833e-05 1.5282959857682093e-05 0.001 -0.00019999999999999998 0.00029999999999999992
727 1.5077344911556411e-06 5.7609866192272602e-05 -2.7521973238453833e-05 2.3282959857682091e-05 0.001 -0.00020000000000000001 0.00029999999999999997
728 1.7319240932448166e-06 5.7609866192272602e-05 -2.7521973238453833e-05 3.1282959857682089e-05 0.001 -0.00020000000000000001 0.00029999999999999997
729 1.7470726815538959e-06 5.7609866192272602e-05 -2.7521973238453833e-05 3.9282959857682094e-05 0.001 -0.00020000000000000001 0.00029999999999999997
730 2.048499656320466e-06 5.7609866192272602e-05 -2.7521973238453833e-05 4.7282959857682085e-05 0.001 -0.00020000000000000001 0.00029999999999999997
731 1.755162102294333e-06 5.7609866192272602e-05 -1.9521973238454418e-05 -2.4717040142317903e-05 0.001 -0.00020000000000000001 0.00029999999999999997
732 1.143379022530806e-06 5.7609866192272602e-05 -1.9521973238454418e-05 -1.6717040142317905e-05 0.001 -0.00019999999999999998 0.00029999999999999997
733 1.818139782575674e-06 5.7609866192272602e-05 -1.9521973238454418e-05 -8.7170401423179074e-06 0.001 -0.00019999999999999998 0.00029999999999999997
734 1.527920187912969e-06 5.7609866192272602e-05 -1.9521973238454418e-05 -7.1704014231790608e-07 0.001 -0.00019999999999999998 0.00029999999999999997
735 2.5457935551043458e-06 5.7609866192272602e-05 -1.9521973238454418e-05 7.282959857682091e-06 0.001 -0.00019999999999999998 0.00029999999999999997
736 1.6107706712968354e-06 5.7609866192272602e-05 -1.9521973238454418e-05 1.5282959857682093e-05 0.001 -0.00020000000000000001 0.00029999999999999992
737 1.0644157966807776e-06 5.7609866192272602e-05 -1.9521973238454418e-05 2.3282959857682091e-05 0.001 -0.00019999999999999998 0.00029999999999999997
738 1.9412019664312519e-06 5.7609866192272602e-05 -1.9521973238454418e-05 3.1282959857682089e-05 0.0010000000000000002 -0.00020000000000000001 0.00029999999999999997
739 9.674389073350291e-07 5.7609866192272602e-05 -1.9521973238454418e-05 3.9282959857682094e-05 0.001 -0.00019999999999999998 0.00029999999999999997
740 2.7333560969194148e-06 5.7609866192272602e-05 -1.9521973238454418e-05 4.7282959857682085e-05 0.001 -0.00019999999999999998 0.00029999999999999997
741 3.2071702201241364e-06 5.7609866192272602e-05 -1.1521973238454859e-05 -2.4717040142317903e-05 0.001 -0.00020000000000000001 0.00029999999999999992
742 2.6435938351334523e-06 5.7609866192272602e-05 -1.1521973238454859e-05 -1.6717040142317905e-05 0.001 -0.00020000000000000004 0.00029999999999999997
743 1.9663855587773855e-06 5.7609866192272602e-05 -1.1521973238454859e-05 -8.7170401423179074e-06 0.001 -0.00020000000000000004 0.00029999999999999997
744 2.5884688742530535e-06 5.7609866192272602e-05 -1.1521973238454859e-05 -7.1704014231790608e-07 0.001 -0.00020000000000000004 0.00029999999999999997
745 1.6897821474462483e-06 5.7609866192272602e-05 -1.1521973238454859e-05 7.282959857682091e-06 0.001 -0.00020000000000000004 0.00029999999999999997
746 2.0739794306589011e-06 5.7609866192272602e-05 -1.1521973238454859e-05 1.5282959857682093e-05 0.001 -0.00020000000000000004 0.00030000000000000003
747 1.3024250299455457e-06 5.7609866192272602e-05 -1.1521973238454859e-05 2.3282959857682091e-05 0.001 -0.00020000000000000004 0.00029999999999999997
748 1.9812477259499297e-06 5.7609866192272602e-05 -1.1521973238454859e-05 3.1282959857682089e-05 0.001 -0.00019999999999999998 0.00029999999999999997
749 3.4064973541806127e-06 5.7609866192272602e-05 -1.1521973238454859e-05 3.9282959857682094e-05 0.001 -0.00020000000000000004 0.00029999999999999997
750 2.0873235072406376e-06 5.7609866192272602e-05 -1.1521973238454859e-05 4.7282959857682085e-05 0.001 -0.00020000000000000004 0.00029999999999999997
751 1.5236329427571439e-06 5.7609866192272602e-05 -3.5219732384547597e-06 -2.4717040142317903e-05 0.001 -0.00019999999999999998 0.00029999999999999992
752 1.4893204003007477e-06 5.7609866192272602e-05 -3.5219732384547597e-06 -1.6717040142317905e-05 0.001 -0.00020000000000000001 0.00029999999999999997
753 1.5556755787127241e-06 5.7609866192272602e-05 -3.5219732384547597e-06 -8.7170401423179074e-06 0.001 -0.00020000000000000001 0.00029999999999999997
754 1.4437021116595e-06 5.7609866192272602e-05 -3.5219732384547597e-06 -7.1704014231790608e-07 0.001 -0.00020000000000000001 0.00029999999999999997
755 1.644025115343135e-06 5.7609866192272602e-05 -3.5219732384547597e-06 7.282959857682091e-06 0.001 -0.00020000000000000001 0.00029999999999999997
756 2.3728702670234721e-06 5.7609866192272602e-05 -3.5219732384547597e-06 1.5282959857682093e-05 0.001 -0.00019999999999999998 0.00029999999999999997
757 1.2126097150572347e-06 5.7609866192272602e-05 -3.5219732384547597e-06 2.3282959857682091e-05 0.001 -0.00020000000000000001 0.00029999999999999997
758 1.6198858701200548e-06 5.7609866192272602e-05 -3.5219732384547597e-06 3.1282959857682089e-05 0.0010000000000000002 -0.00020000000000000001 0.00029999999999999997
759 1.9719058997001219e-06 5.7609866192272602e-05 -3.5219732384547597e-06 3.9282959857682094e-05 0.001 -0.00020000000000000001 0.00029999999999999997
760 1.4432940417730746e-06 5.7609866192272602e-05 -3.5219732384547597e-06 4.7282959857682085e-05 0.001 -0.00020000000000000001 0.00029999999999999997
761 2.8187835795418333e-06 5.7609866192272602e-05 4.4780267615450946e-06 -2.4717040142317903e-05 0.001 -0.00020000000000000004 0.00029999999999999992
762 4.2453321818635607e-06 5.7609866192272602e-05 4.4780267615450946e-06 -1.6717040142317905e-05 0.001 -0.00020000000000000001 0.00030000000000000003
763 1.7986272557721543e-06 5.7609866192272602e-05 4.4780267615450946e-06 -8.7170401423179074e-06 0.001 -0.00020000000000000001 0.00030000000000000003
764 1.6657693587234758e-06 5.7609866192272602e-05 4.4780267615450946e-06 -7.1704014231790608e-07 0.001 -0.00020000000000000001 0.00030000000000000003
765 1.5050931713338427e-06 5.7609866192272602e-05 4.4780267615450946e-06 7.282959857682091e-06 0.001 -0.00020000000000000001 0.00030000000000000003
766 1.5955248518159149e-06 5.7609866192272602e-05 4.4780267615450946e-06 1.5282959857682093e-05 0.001 -0.00019999999999999998 0.00029999999999999997
767 2.8192228494558327e-06 5.7609866192272602e-05 4.4780267615450946e-06 2.3282959857682091e-05 0.001 -0.00020000000000000001 0.00030000000000000003
768 1.0806735463403972e-06 5.7609866192272602e-05 4.4780267615450946e-06 3.1282959857682089e-05 0.0010000000000000002 -0.00020000000000000001 0.00029999999999999997
769 1.64231368773332e-06 5.7609866192272602e-05 4.4780267615450946e-06 3.9282959857682094e-05 0.001 -0.00020000000000000001 0.00030000000000000003
770 1.8870655543478242e-06 5.7609866192272602e-05 4.4780267615450946e-06 4.7282959857682085e-05 0.001 -0.00020000000000000001 0.00030000000000000003
771 1.8445605208757595e-06 5.7609866192272602e-05 1.2478026761545662e-05 -2.4717040142317903e-05 0.001 -0.00019999999999999998 0.00029999999999999997
772 2.1088621884847026e-06 5.7609866192272602e-05 1.2478026761545662e-05 -1.6717040142317905e-05 0.001 -0.00020000000000000001 0.00029999999999999997
773 1.3809756114527141e-06 5.7609866192272602e-05 1.2478026761545662e-05 -8.7170401423179074e-06 0.001 -0.00020000000000000001 0.00029999999999999997
774 2.2357637613376633e-06 5.7609866192272602e-05 1.2478026761545662e-05 -7.1704014231790608e-07 0.001 -0.00020000000000000001 0.00029999999999999997
775 1.9212544183736713e-06 5.7609866192272602e-05 1.2478026761545662e-05 7.282959857682091e-06 0.001 -0.00020000000000000001 0.00029999999999999997
776 2.2360239880316537e-06 5.7609866192272602e-05 1.2478026761545662e-05 1.5282959857682093e-05 0.0010000000000000002 -0.00020000000000000001 0.00029999999999999997
777 1.244584362623351e-06 5.7609866192272602e-05 1.2478026761545662e-05 2.3282959857682091e-05 0.001 -0.00020000000000000001 0.00029999999999999997
778 1.0484603836179149e-06 5.7609866192272602e-05 1.2478026761545662e-05 3.1282959857682089e-05 0.001 -0.00020000000000000001 0.00029999999999999997
779 2.8740114554991693e-06 5.7609866192272602e-05 1.2478026761545662e-05 3.9282959857682094e-05 0.001 -0.00020000000000000001 0.00029999999999999997
780 3.1872238833325067e-06 5.7609866192272602e-05 1.2478026761545662e-05 4.7282959857682085e-05 0.001 -0.00020000000000000001 0.00029999999999999997
781 9.5466099821602e-07 5.7609866192272602e-05 2.0478026761546168e-05 -2.4717040142317903e-05 0.001 -0.00020000000000000004 0.00029999999999999992
782 1.2475945024554268e-06 5.7609866192272602e-05 2.0478026761546168e-05 -1.6717040142317905e-05 0.001 -0.00020000000000000001 0.00029999999999999997
783 3.0784437605093116e-06 5.7609866192272602e-05 2.0478026761546168e-05 -8.7170401423179074e-06 0.001 -0.00020000000000000001 0.00029999999999999997
784 2.1300727371412934e-06 5.7609866192272602e-05 2.0478026761546168e-05 -7.1704014231790608e-07 0.001 -0.00020000000000000001 0.00029999999999999997
785 2.3621212927781039e-06 5.7609866192272602e-05 2.0478026761546168e-05 7.282959857682091e-06 0.001 -0.00020000000000000001 0.00029999999999999997
786 1.8397486752475168e-06 5.7609866192272602e-05 2.0478026761546168e-05 1.5282959857682093e-05 0.001 -0.00019999999999999998 0.00029999999999999992
787 2.4361912782654271e-06 5.7609866192272602e-05 2.0478026761546168e-05 2.3282959857682091e-05 0.001 -0.00020000000000000001 0.00029999999999999997
788 1.6871769206922432e-06 5.7609866192272602e-05 2.0478026761546168e-05 3.1282959857682089e-05 0.001 -0.00020000000000000001 0.00029999999999999997
789 1.7746649904808506e-06 5.7609866192272602e-05 2.0478026761546168e-05 3.9282959857682094e-05 0.001 -0.00020000000000000001 0.00029999999999999997
790 2.4490723672049805e-06 5.7609866192272602e-05 2.0478026761546168e-05 4.7282959857682085e-05 0.001 -0.00020000000000000001 0.00029999999999999997
791 1.8494587672938606e-06 5.7609866192272602e-05 2.8478026761544184e-05 -2.4717040142317903e-05 0.001 -0.00020000000000000001 0.00029999999999999997
792 1.5142175476206563e-06 5.7609866192272602e-05 2.8478026761544184e-05 -1.6717040142317905e-05 0.0010000000000000002 -0.00020000000000000001 0.00029999999999999997
793 1.6370970339164953e-06 5.7609866192272602e-05 2.8478026761544184e-05 -8.7170401423179074e-06 0.0010000000000000002 -0.00020000000000000001 0.00029999999999999997
794 1.6214049829052992e-06 5.7609866192272602e-05 2.8478026761544184e-05 -7.1704014231790608e-07 0.0010000000000000002 -0.00020000000000000001 0.00029999999999999997
795 1.3981225306856429e-06 5.7609866192272602e-05 2.8478026761544184e-05 7.282959857682091e-06 0.0010000000000000002 -0.00020000000000000001 0.00029999999999999997
796 1.7180840333197665e-06 5.7609866192272602e-05 2.8478026761544184e-05 1.5282959857682093e-05 0.0010000000000000002 -0.00020000000000000004 0.00029999999999999997
797 2.0333941975000471e-06 5.7609866192272602e-05 2.8478026761544184e-05 2.3282959857682091e-05 0.0010000000000000002 -0.00020000000000000001 0.00029999999999999997
798 1.4384178950423447e-06 5.7609866192272602e-05 2.8478026761544184e-05 3.1282959857682089e-05 0.001 -0.00019999999999999998 0.00029999999999999997
799 1.6644988549015922e-06 5.7609866192272602e-05 2.8478026761544184e-05 3.9282959857682094e-05 0.0010000000000000002 -0.00020000000000000001 0.00029999999999999997
800 1.8414466140953708e-06 5.7609866192272602e-05 2.8478026761544184e-05 4.7282959857682085e-05 0.0010000000000000002 -0.00020000000000000001 0.00029999999999999997
801 1.6213709255087349e-06 6.5609866192272695e-05 -4.352197323845654e-05 -2.4717040142317903e-05 0.001 -0.00020000000000000004 0.00030000000000000003
802 2.1816762998219018e-06 6.5609866192272695e-05 -4.352197323845654e-05 -1.6717040142317905e-05 0.001 -0.00020000000000000001 0.00029999999999999997
803 2.3565351518194598e-06 6.5609866192272695e-05 -4.352197323845654e-05 -8.7170401423179074e-06 0.001 -0.00020000000000000001 0.00029999999999999997
804 1.6137950904436823e-06 6.5609866192272695e-05 -4.352197323845654e-05 -7.1704014231790608e-07 0.001 -0.00020000000000000001 0.00029999999999999997
805 2.8241573403483849e-06 6.5609866192272695e-05 -4.352197323845654e-05 7.282959857682091e-06 0.001 -0.00020000000000000001 0.00029999999999999997
806 2.4392483335087739e-06 6.5609866192272695e-05 -4.352197323845654e-05 1.5282959857682093e-05 0.001 -0.00020000000000000001 0.00029999999999999992
807 1.4943148716121699e-06 6.5609866192272695e-05 -4.352197323845654e-05 2.3282959857682091e-05 0.001 -0.00020000000000000001 0.00029999999999999997
808 1.9807837895297095e-06 6.5609866192272695e-05 -4.352197323845654e-05 3.1282959857682089e-05 0.001 -0.00020000000000000001 0.00029999999999999992
809 1.6057564288032251e-06 6.5609866192272695e-05 -4.352197323845654e-05 3.9282959857682094e-05 0.001 -0.00020000000000000001 0.00029999999999999997
810 1.3944617039013505e-06 6.5609866192272695e-05 -4.352197323845654e-05 4.7282959857682085e-05 0.001 -0.00020000000000000001 0.00029999999999999997
811 2.3106071209012239e-06 6.5609866192272695e-05 -3.5521973238455634e-05 -2.4717040142317903e-05 0.001 -0.00020000000000000001 0.00029999999999999997
812 1.5834796748835463e-06 6.5609866192272695e-05 -3.5521973238455634e-05 -1.6717040142317905e-05 0.001 -0.00020000000000000001 0.00029999999999999997
813 3.7014776388521118e-06 6.5609866192272695e-05 -3.5521973238455634e-05 -8.7170401423179074e-06 0.001 -0.00020000000000000001 0.00029999999999999997
814 1.4081534617838142e-06 6.5609866192272695e-05 -3.5521973238455634e-05 -7.1704014231790608e-07 0.001 -0.00020000000000000001 0.00029999999999999997
815 1.2581964015296877e-06 6.5609866192272695e-05 -3.5521973238455634e-05 7.282959857682091e-06 0.001 -0.00020000000000000001 0.00029999999999999997
816 2.57826214652786e-06 6.5609866192272695e-05 -3.5521973238455634e-05 1.5282959857682093e-05 0.0009999999999999998 -0.00019999999999999998 0.00030000000000000003
817 1.4621644936711017e-06 6.5609866192272695e-05 -3.5521973238455634e-05 2.3282959857682091e-05 0.001 -0.00020000000000000001 0.00029999999999999997
818 1.9607064312131383e-06 6.5609866192272695e-05 -3.5521973238455634e-05 3.1282959857682089e-05 0.001 -0.00020000000000000001 0.00029999999999999997
819 2.6060422664972548e-06 6.5609866192272695e-05 -3.5521973238455634e-05 3.9282959857682094e-05 0.001 -0.00020000000000000001 0.00029999999999999997
820 2.4471573757847207e-06 6.5609866192272695e-05 -3.5521973238455634e-05 4.7282959857682085e-05 0.001 -0.00020000000000000001 0.00029999999999999997
821 1.9232939112761695e-06 6.5609866192272695e-05 -2.7521973238453833e-05 -2.4717040142317903e-05 0.001 -0.00020000000000000001 0.00029999999999999997
822 2.8942049782517359e-06 6.5609866192272695e-05 -2.7521973238453833e-05 -1.6717040142317905e-05 0.001 -0.00020000000000000001 0.00029999999999999997
823 1.6634713911205329e-06 6.5609866192272695e-05 -2.7521973238453833e-05 -8.7170401423179074e-06 0.001 -0.00020000000000000001 0.00029999999999999997
824 2.1196466761563109e-06 6.5609866192272695e-05 -2.7521973238453833e-05 -7.1704014231790608e-07 0.001 -0.00020000000000000001 0.00029999999999999997
825 2.3323679124131056e-06 6.5609866192272695e-05 -2.7521973238453833e-05 7.282959857682091e-06 0.001 -0.00020000000000000001 0.00029999999999999997
826 1.6116315479587785e-06 6.5609866192272695e-05 -2.7521973238453833e-05 1.5282959857682093e-05 0.001 -0.00020000000000000001 0.00029999999999999997
827 3.51107686393997e-06 6.5609866192272695e-05 -2.7521973238453833e-05 2.3282959857682091e-05 0.001 -0.00020000000000000001 0.00029999999999999997
828 1.1817669801275178e-06 6.5609866192272695e-05 -2.7521973238453833e-05 3.1282959857682089e-05 0.001 -0.00020000000000000001 0.00029999999999999997
829 2.2496880660228626e-06 6.5609866192272695e-05 -2.7521973238453833e-05 3.9282959857682094e-05 0.001 -0.00020000000000000001 0.00029999999999999997
830 1.8288037043116248e-06 6.5609866192272695e-05 -2.7521973238453833e-05 4.7282959857682085e-05 0.001 -0.00020000000000000001 0.00029999999999999997
831 2.8068946331113676e-06 6.5609866192272695e-05 -1.9521973238454418e-05 -2.4717040142317903e-05 0.001 -0.00020000000000000001 0.00029999999999999997
832 1.8127066854905236e-06 6.5609866192272695e-05 -1.9521973238454418e-05 -1.6717040142317905e-05 0.001 -0.00020000000000000001 0.00029999999999999992
833 2.2747512389358233e-06 6.5609866192272695e-05 -1.9521973238454418e-05 -8.7170401423179074e-06 0.001 -0.00020000000000000001 0.00029999999999999992
834 1.6414211780700812e-06 6.5609866192272695e-05 -1.9521973238454418e-05 -7.1704014231790608e-07 0.001 -0.00020000000000000001 0.00029999999999999992
835 4.4486492098638704e-06 6.5609866192272695e-05 -1.9521973238454418e-05 7.282959857682091e-06 0.001 -0.00020000000000000001 0.00029999999999999992
836 2.4774948080997083e-06 6.5609866192272695e-05 -1.9521973238454418e-05 1.5282959857682093e-05 0.001 -0.00020000000000000004 0.00030000000000000003
837 3.1129381107916339e-06 6.5609866192272695e-05 -1.9521973238454418e-05 2.3282959857682091e-05 0.001 -0.00020000000000000001 0.00029999999999999992
838 2.3226837411497893e-06 6.5609866192272695e-05 -1.9521973238454418e-05 3.1282959857682089e-05 0.001 -0.00020000000000000001 0.00029999999999999997
839 1.9015119334273655e-06 6.5609866192272695e-05 -1.9521973238454418e-05 3.9282959857682094e-05 0.001 -0.00020000000000000001 0.00029999999999999992
840 1.1633980180706207e-06 6.5609866192272695e-05 -1.9521973238454418e-05 4.7282959857682085e-05 0.001 -0.00020000000000000001 0.00029999999999999992
841 1.9831250030588606e-06 6.5609866192272695e-05 -1.1521973238454859e-05 -2.4717040142317903e-05 0.001 -0.00019999999999999998 0.00029999999999999997
842 1.9474828997433708e-06 6.5609866192272695e-05 -1.1521973238454859e-05 -1.6717040142317905e-05 0.001 -0.00020000000000000001 0.00029999999999999997
843 2.2028665997096372e-06 6.5609866192272695e-05 -1.1521973238454859e-05 -8.7170401423179074e-06 0.001 -0.00020000000000000001 0.00029999999999999997
844 2.5512231328215312e-06 6.5609866192272695e-05 -1.1521973238454859e-05 -7.1704014231790608e-07 0.001 -0.00020000000000000001 0.00029999999999999997
845 2.112775796507788e-06 6.5609866192272695e-05 -1.1521973238454859e-05 7.282959857682091e-06 0.001 -0.00020000000000000001 0.00029999999999999997
846 1.8190431029036829e-06 6.5609866192272695e-05 -1.1521973238454859e-05 1.5282959857682093e-05 0.001 -0.00020000000000000001 0.00030000000000000003
847 1.7881341275278016e-06 6.5609866192272695e-05 -1.1521973238454859e-05 2.3282959857682091e-05 0.001 -0.00020000000000000001 0.00029999999999999997
848 1.8557132392308367e-06 6.5609866192272695e-05 -1.1521973238454859e-05 3.1282959857682089e-05 0.001 -0.00020000000000000001 0.00029999999999999997
849 1.5408367166926334e-06 6.5609866192272695e-05 -1.1521973238454859e-05 3.9282959857682094e-05 0.001 -0.00020000000000000001 0.00029999999999999997
850 1.9663920287763313e-06 6.5609866192272695e-05 -1.1521973238454859e-05 4.7282959857682085e-05 0.001 -0.00020000000000000001 0.00029999999999999997
851 1.4551270748264723e-06 6.5609866192272695e-05 -3.5219732384547597e-06 -2.4717040142317903e-05 0.001 -0.00020000000000000001 0.00029999999999999997
852 1.7807220231414832e-06 6.5609866192272695e-05 -3.5219732384547597e-06 -1.6717040142317905e-05 0.001 -0.00020000000000000004 0.00029999999999999997
853 1.6722787696862814e-06 6.5609866192272695e-05 -3.5219732384547597e-06 -8.7170401423179074e-06 0.001 -0.00020000000000000004 0.00029999999999999997
854 2.2735979051860208e-06 6.5609866192272695e-05 -3.5219732384547597e-06 -7.1704014231790608e-07 0.001 -0.00020000000000000004 0.00029999999999999997
855 2.1342801039730079e-06 6.5609866192272695e-05 -3.5219732384547597e-06 7.282959857682091e-06 0.001 -0.00020000000000000004 0.00029999999999999997
856 1.6863547191748704e-06 6.5609866192272695e-05 -3.5219732384547597e-06 1.5282959857682093e-05 0.001 -0.00019999999999999998 0.00029999999999999992
857 2.6757035642712588e-06 6.5609866192272695e-05 -3.5219732384547597e-06 2.3282959857682091e-05 0.001 -0.00020000000000000004 0.00029999999999999997
858 2.069110828336575e-06 6.5609866192272695e-05 -3.5219732384547597e-06 3.1282959857682089e-05 0.001 -0.00020000000000000001 0.00029999999999999992
859 1.8808548994498101e-06 6.5609866192272695e-05 -3.5219732384547597e-06 3.9282959857682094e-05 0.001 -0.00020000000000000004 0.00029999999999999997
860 2.4234656746152572e-06 6.5609866192272695e-05 -3.5219732384547597e-06 4.7282959857682085e-05 0.001 -0.00020000000000000004 0.00029999999999999997
861 3.4045742582884503e-06 6.5609866192272695e-05 4.4780267615450946e-06 -2.4717040142317903e-05 0.001 -0.00020000000000000001 0.00029999999999999997
862 2.4967587892109153e-06 6.5609866192272695e-05 4.4780267615450946e-06 -1.6717040142317905e-05 0.001 -0.00019999999999999998 0.00029999999999999997
863 1.9959827650142603e-06 6.5609866192272695e-05 4.4780267615450946e-06 -8.7170401423179074e-06 0.001 -0.00019999999999999998 0.00029999999999999997
864 1.6959886956130726e-06 6.5609866192272695e-05 4.4780267615450946e-06 -7.1704014231790608e-07 0.001 -0.00019999999999999998 0.00029999999999999997
865 1.4403674179725345e-06 6.5609866192272695e-05 4.4780267615450946e-06 7.282959857682091e-06 0.001 -0.00019999999999999998 0.00029999999999999997
866 1.5564001196209865e-06 6.5609866192272695e-05 4.4780267615450946e-06 1.5282959857682093e-05 0.001 -0.00020000000000000001 0.00029999999999999997
867 2.0951574673113514e-06 6.5609866192272695e-05 4.4780267615450946e-06 2.3282959857682091e-05 0.001 -0.00019999999999999998 0.00029999999999999997
868 2.1085928480109465e-06 6.5609866192272695e-05 4.4780267615450946e-06 3.1282959857682089e-05 0.0010000000000000002 -0.00020000000000000001 0.00029999999999999992
869 1.9838951154623075e-06 6.5609866192272695e-05 4.4780267615450946e-06 3.9282959857682094e-05 0.001 -0.00019999999999999998 0.00029999999999999997
870 1.7786090046323383e-06 6.5609866192272695e-05 4.4780267615450946e-06 4.7282959857682085e-05 0.001 -0.00019999999999999998 0.00029999999999999997
871 3.3980876713516584e-06 6.5609866192272695e-05 1.2478026761545662e-05 -2.4717040142317903e-05 0.001 -0.00020000000000000001 0.00029999999999999997
872 1.7492859179006044e-06 6.5609866192272695e-05 1.2478026761545662e-05 -1.6717040142317905e-05 0.001 -0.00020000000000000001 0.00029999999999999997
873 2.0906934570756443e-06 6.5609866192272695e-05 1.2478026761545662e-05 -8.7170401423179074e-06 0.001 -0.00020000000000000001 0.00029999999999999997
874 2.6150445911082597e-06 6.5609866192272695e-05 1.2478026761545662e-05 -7.1704014231790608e-07 0.001 -0.00020000000000000001 0.00029999999999999997
875 1.9232952070228978e-06 6.5609866192272695e-05 1.2478026761545662e-05 7.282959857682091e-06 0.001 -0.00020000000000000001 0.00029999999999999997
876 1.1561187741756663e-06 6.5609866192272695e-05 1.2478026761545662e-05 1.5282959857682093e-05 0.0010000000000000002 -0.00020000000000000004 0.00030000000000000003
877 1.584213121956847e-06 6.5609866192272695e-05 1.2478026761545662e-05 2.3282959857682091e-05 0.001 -0.00020000000000000001 0.00029999999999999997
878 1.6463977765754979e-06 6.5609866192272695e-05 1.2478026761545662e-05 3.1282959857682089e-05 0.001 -0.00020000000000000001 0.00029999999999999992
879 1.9017774924510533e-06 6.5609866192272695e-05 1.2478026761545662e-05 3.9282959857682094e-05 0.001 -0.00020000000000000001 0.00029999999999999997
880 1.5391919539097951e-06 6.5609866192272695e-05 1.2478026761545662e-05 4.7282959857682085e-05 0.001 -0.00020000000000000001 0.00029999999999999997
881 1.3775742751114745e-06 6.5609866192272695e-05 2.0478026761546168e-05 -2.4717040142317903e-05 0.001 -0.00020000000000000001 0.00029999999999999997
882 4.0165794886233569e-06 6.5609866192272695e-05 2.0478026761546168e-05 -1.6717040142317905e-05 0.001 -0.00020000000000000001 0.00029999999999999997
883 2.27298217054188e-06 6.5609866192272695e-05 2.0478026761546168e-05 -8.7170401423179074e-06 0.001 -0.00020000000000000001 0.00029999999999999997
884 1.5028899797653599e-06 6.5609866192272695e-05 2.0478026761546168e-05 -7.1704014231790608e-07 0.001 -0.00020000000000000001 0.00029999999999999997
885 1.3603587552903838e-06 6.5609866192272695e-05 2.0478026761546168e-05 7.282959857682091e-06 0.001 -0.00020000000000000001 0.00029999999999999997
886 1.7022739928523433e-06 6.5609866192272695e-05 2.0478026761546168e-05 1.5282959857682093e-05 0.001 -0.00020000000000000001 0.00029999999999999997
887 2.1282878289903953e-06 6.5609866192272695e-05 2.0478026761546168e-05 2.3282959857682091e-05 0.001 -0.00020000000000000001 0.00029999999999999997
888 1.0081064939595345e-06 6.5609866192272695e-05 2.0478026761546168e-05 3.1282959857682089e-05 0.001 -0.00020000000000000001 0.00029999999999999997
889 2.2116259940706728e-06 6.5609866192272695e-05 2.0478026761546168e-05 3.9282959857682094e-05 0.001 -0.00020000000000000001 0.00029999999999999997
890 2.2790493438297417e-06 6.5609866192272695e-05 2.0478026761546168e-05 4.7282959857682085e-05 0.001 -0.00020000000000000001 0.00029999999999999997
891 2.7045622953966897e-06 6.5609866192272695e-05 2.8478026761544184e-05 -2.4717040142317903e-05 0.001 -0.00020000000000000004 0.00029999999999999997
892 1.3240020942399152e-06 6.5609866192272695e-05 2.8478026761544184e-05 -1.6717040142317905e-05 0.001 -0.00020000000000000001 0.00029999999999999992
893 1.4032449250497227e-06 6.5609866192272695e-05 2.8478026761544184e-05 -8.7170401423179074e-06 0.001 -0.00020000000000000001 0.00029999999999999992
894 1.2074310949224079e-06 6.5609866192272695e-05 2.8478026761544184e-05 -7.1704014231790608e-07 0.001 -0.00020000000000000001 0.00029999999999999992
895 2.738139534326777e-06 6.5609866192272695e-05 2.8478026761544184e-05 7.282959857682091e-06 0.001 -0.00020000000000000001 0.00029999999999999992
896 2.0107235412449702e-06 6.5609866192272695e-05 2.8478026761544184e-05 1.5282959857682093e-05 0.001 -0.00019999999999999998 0.00029999999999999997
897 1.4633916245285148e-06 6.5609866192272695e-05 2.8478026761544184e-05 2.3282959857682091e-05 0.001 -0.00020000000000000001 0.00029999999999999992
898 2.2702355333263634e-06 6.5609866192272695e-05 2.8478026761544184e-05 3.1282959857682089e-05 0.001 -0.00020000000000000001 0.00029999999999999997
899 1.7225819499988728e-06 6.5609866192272695e-05 2.8478026761544184e-05 3.9282959857682094e-05 0.001 -0.00020000000000000001 0.00029999999999999992
900 2.4581140151829036e-06 6.5609866192272695e-05 2.8478026761544184e-05 4.7282959857682085e-05 0.001 -0.00020000000000000001 0.00029999999999999992
901 3.5040846530983026e-06 7.3609866192272686e-05 -4.352197323845654e-05 -2.4717040142317903e-05 0.001 -0.00020000000000000001 0.00029999999999999997
902 2.8379373052445643e-06 7.3609866192272686e-05 -4.352197323845654e-05 -1.6717040142317905e-05 0.001 -0.00020000000000000001 0.00029999999999999997
903 1.8004678596406497e-06 7.3609866192272686e-05 -4.352197323845654e-05 -8.7170401423179074e-06 0.001 -0.00020000000000000001 0.00029999999999999997
904 3.7657827011977481e-06 7.3609866192272686e-05 -4.352197323845654e-05 -7.1704014231790608e-07 0.001 -0.00020000000000000001 0.00029999999999999997
905 1.6069001294123983e-06 7.3609866192272686e-05 -4.352197323845654e-05 7.282959857682091e-06 0.001 -0.00020000000000000001 0.00029999999999999997
906 2.2198738703824714e-06 7.3609866192272686e-05 -4.352197323845654e-05 1.5282959857682093e-05 0.001 -0.00020000000000000001 0.00030000000000000003
907 1.6113121955688606e-06 7.3609866192272686e-05 -4.352197323845654e-05 2.3282959857682091e-05 0.001 -0.00020000000000000001 0.00029999999999999997
908 3.0116278683484418e-06 7.3609866192272686e-05 -4.352197323845654e-05 3.1282959857682089e-05 0.0009999999999999998 -0.00019999999999999998 0.00029999999999999997
909 2.9169865081844634e-06 7.3609866192272686e-05 -4.352197323845654e-05 3.9282959857682094e-05 0.001 -0.00020000000000000001 0.00029999999999999997
910 1.8315210090235164e-06 7.3609866192272686e-05 -4.352197323845654e-05 4.7282959857682085e-05 0.001 -0.00020000000000000001 0.00029999999999999997
911 1.3289227456402315e-06 7.3609866192272686e-05 -3.5521973238455634e-05 -2.4717040142317903e-05 0.001 -0.00020000000000000001 0.00029999999999999997
912 1.7023875200384668e-06 7.3609866192272686e-05 -3.5521973238455634e-05 -1.6717040142317905e-05 0.001 -0.00020000000000000004 0.00029999999999999997
913 2.1904340844840186e-06 7.3609866192272686e-05 -3.5521973238455634e-05 -8.7170401423179074e-06 0.001 -0.00020000000000000004 0.00029999999999999997
914 1.9586807120385814e-06 7.3609866192272686e-05 -3.5521973238455634e-05 -7.1704014231790608e-07 0.001 -0.00020000000000000004 0.00029999999999999997
915 2.3684885752608908e-06 7.3609866192272686e-05 -3.5521973238455634e-05 7.282959857682091e-06 0.001 -0.00020000000000000004 0.00029999999999999997
916 1.3478273846865548e-06 7.3609866192272686e-05 -3.5521973238455634e-05 1.5282959857682093e-05 0.001 -0.00020000000000000001 0.00029999999999999997
917 1.8687328504095459e-06 7.3609866192272686e-05 -3.5521973238455634e-05 2.3282959857682091e-05 0.001 -0.00020000000000000004 0.00029999999999999997
918 2.8149590459260193e-06 7.3609866192272686e-05 -3.5521973238455634e-05 3.1282959857682089e-05 0.001 -0.00020000000000000001 0.00029999999999999997
919 1.9198277002160636e-06 7.3609866192272686e-05 -3.5521973238455634e-05 3.9282959857682094e-05 0.001 -0.00020000000000000004 0.00029999999999999997
920 2.1567407161293719e-06 7.3609866192272686e-05 -3.5521973238455634e-05 4.7282959857682085e-05 0.001 -0.00020000000000000004 0.00029999999999999997
921 1.0709889279890791e-06 7.3609866192272686e-05 -2.7521973238453833e-05 -2.4717040142317903e-05 0.001 -0.00020000000000000004 0.00029999999999999992
922 2.0227691686703206e-06 7.3609866192272686e-05 -2.7521973238453833e-05 -1.6717040142317905e-05 0.001 -0.00020000000000000001 0.00029999999999999997
923 1.8183102049668959e-06 7.3609866192272686e-05 -2.7521973238453833e-05 -8.7170401423179074e-06 0.001 -0.00020000000000000001 0.00029999999999999997
924 2.2024112624298039e-06 7.3609866192272686e-05 -2.7521973238453833e-05 -7.1704014231790608e-07 0.001 -0.00020000000000000001 0.00029999999999999997
925 2.4744219481385835e-06 7.3609866192272686e-05 -2.7521973238453833e-05 7.282959857682091e-06 0.001 -0.00020000000000000001 0.00029999999999999997
926 2.6321237643198371e-06 7.3609866192272686e-05 -2.7521973238453833e-05 1.5282959857682093e-05 0.001 -0.00020000000000000001 0.00029999999999999997
927 3.6499514348841338e-06 7.3609866192272686e-05 -2.7521973238453833e-05 2.3282959857682091e-05 0.001 -0.00020000000000000001 0.00029999999999999997
928 2.1904661045726594e-06 7.3609866192272686e-05 -2.7521973238453833e-05 3.1282959857682089e-05 0.001 -0.00020000000000000001 0.00029999999999999997
929 1.3808674620411119e-06 7.3609866192272686e-05 -2.7521973238453833e-05 3.9282959857682094e-05 0.001 -0.00020000000000000001 0.00029999999999999997
930 1.782840240499541e-06 7.3609866192272686e-05 -2.7521973238453833e-05 4.7282959857682085e-05 0.001 -0.00020000000000000001 0.00029999999999999997
931 1.4712947539685804e-06 7.3609866192272686e-05 -1.9521973238454418e-05 -2.4717040142317903e-05 0.001 -0.00020000000000000004 0.00029999999999999992
932 1.8859151850950252e-06 7.3609866192272686e-05 -1.9521973238454418e-05 -1.6717040142317905e-05 0.001 -0.00020000000000000001 0.00029999999999999992
933 2.3176320741835624e-06 7.3609866192272686e-05 -1.9521973238454418e-05 -8.7170401423179074e-06 0.001 -0.00020000000000000001 0.00029999999999999992
934 1.7359977055444372e-06 7.3609866192272686e-05 -1.9521973238454418e-05 -7.1704014231790608e-07 0.001 -0.00020000000000000001 0.00029999999999999992
935 1.7244207771267659e-06 7.3609866192272686e-05 -1.9521973238454418e-05 7.282959857682091e-06 0.001 -0.00020000000000000001 0.00029999999999999992
936 1.5612050598172475e-06 7.3609866192272686e-05 -1.9521973238454418e-05 1.5282959857682093e-05 0.001 -0.00020000000000000001 0.00029999999999999997
937 2.1660697498680256e-06 7.3609866192272686e-05 -1.9521973238454418e-05 2.3282959857682091e-05 0.001 -0.00020000000000000001 0.00029999999999999992
938 1.731653039303446e-06 7.3609866192272686e-05 -1.9521973238454418e-05 3.1282959857682089e-05 0.0010000000000000002 -0.00020000000000000001 0.00029999999999999997
939 1.6241672479394609e-06 7.3609866192272686e-05 -1.9521973238454418e-05 3.9282959857682094e-05 0.001 -0.00020000000000000001 0.00029999999999999992
940 2.2937791988079764e-06 7.3609866192272686e-05 -1.9521973238454418e-05 4.7282959857682085e-05 0.001 -0.00020000000000000001 0.00029999999999999992
941 1.2125646712065114e-06 7.3609866192272686e-05 -1.1521973238454859e-05 -2.4717040142317903e-05 0.0010000000000000002 -0.00020000000000000001 0.00029999999999999997
942 1.866381531922835e-06 7.3609866192272686e-05 -1.1521973238454859e-05 -1.6717040142317905e-05 0.001 -0.00019999999999999998 0.00029999999999999992
943 1.2590386983867306e-06 7.3609866192272686e-05 -1.1521973238454859e-05 -8.7170401423179074e-06 0.001 -0.00019999999999999998 0.00029999999999999992
944 2.8199693817852689e-06 7.3609866192272686e-05 -1.1521973238454859e-05 -7.1704014231790608e-07 0.001 -0.00019999999999999998 0.00029999999999999992
945 1.444632593802059e-06 7.3609866192272686e-05 -1.1521973238454859e-05 7.282959857682091e-06 0.001 -0.00019999999999999998 0.00029999999999999992
946 1.0353232015090529e-06 7.3609866192272686e-05 -1.1521973238454859e-05 1.5282959857682093e-05 0.001 -0.00020000000000000001 0.00029999999999999997
947 1.5026509433025808e-06 7.3609866192272686e-05 -1.1521973238454859e-05 2.3282959857682091e-05 0.001 -0.00019999999999999998 0.00029999999999999992
948 1.6914071751053594e-06 7.3609866192272686e-05 -1.1521973238454859e-05 3.1282959857682089e-05 0.001 -0.00020000000000000001 0.00029999999999999997
949 1.216028995830718e-06 7.3609866192272686e-05 -1.1521973238454859e-05 3.9282959857682094e-05 0.001 -0.00019999999999999998 0.00029999999999999992
950 1.9457136078350599e-06 7.3609866192272686e-05 -1.1521973238454859e-05 4.7282959857682085e-05 0.001 -0.00019999999999999998 0.00029999999999999992
951 2.176865935612889e-06 7.3609866192272686e-05 -3.5219732384547597e-06 -2.4717040142317903e-05 0.001 -0.00019999999999999998 0.00029999999999999997
952 2.7261486147083703e-06 7.3609866192272686e-05 -3.5219732384547597e-06 -1.6717040142317905e-05 0.001 -0.00020000000000000001 0.00029999999999999997
953 1.3278933102680727e-06 7.3609866192272686e-05 -3.5219732384547597e-06 -8.7170401423179074e-06 0.001 -0.00020000000000000001 0.00029999999999999997
954 1.1323980962147409e-06 7.3609866192272686e-05 -3.5219732384547597e-06 -7.1704014231790608e-07 0.001 -0.00020000000000000001 0.00029999999999999997
955 2.1298296479884684e-06 7.3609866192272686e-05 -3.5219732384547597e-06 7.282959857682091e-06 0.001 -0.00020000000000000001 0.00029999999999999997
956 1.7246342047182447e-06 7.3609866192272686e-05 -3.5219732384547597e-06 1.5282959857682093e-05 0.001 -0.00020000000000000001 0.00030000000000000003
957 1.0683291334127747e-06 7.3609866192272686e-05 -3.5219732384547597e-06 2.3282959857682091e-05 0.001 -0.00020000000000000001 0.00029999999999999997
958 2.8788210576672637e-06 7.3609866192272686e-05 -3.5219732384547597e-06 3.1282959857682089e-05 0.001 -0.00020000000000000004 0.00030000000000000003
959 2.2712312528253881e-06 7.3609866192272686e-05 -3.5219732384547597e-06 3.9282959857682094e-05 0.001 -0.00020000000000000001 0.00029999999999999997
960 2.2434964968511116e-06 7.3609866192272686e-05 -3.5219732384547597e-06 4.7282959857682085e-05 0.001 -0.00020000000000000001 0.00029999999999999997
961 1.6269677066834334e-06 7.3609866192272686e-05 4.4780267615450946e-06 -2.4717040142317903e-05 0.001 -0.00019999999999999998 0.00029999999999999997
962 1.0468805018925074e-06 7.3609866192272686e-05 4.4780267615450946e-06 -1.6717040142317905e-05 0.001 -0.00020000000000000001 0.00029999999999999997
963 1.7323482013397281e-06 7.3609866192272686e-05 4.4780267615450946e-06 -8.7170401423179074e-06 0.001 -0.00020000000000000001 0.00029999999999999997
964 2.9680050154278599e-06 7.3609866192272686e-05 4.4780267615450946e-06 -7.1704014231790608e-07 0.001 -0.00020000000000000001 0.00029999999999999997
965 1.9607238231669479e-06 7.3609866192272686e-05 4.4780267615450946e-06 7.282959857682091e-06 0.001 -0.00020000000000000001 0.00029999999999999997
966 2.1986196694151644e-06 7.3609866192272686e-05 4.4780267615450946e-06 1.5282959857682093e-05 0.001 -0.00020000000000000001 0.00030000000000000003
967 1.3930937874067303e-06 7.3609866192272686e-05 4.4780267615450946e-06 2.3282959857682091e-05 0.001 -0.00020000000000000001 0.00029999999999999997
968 1.6533283529160882e-06 7.3609866192272686e-05 4.4780267615450946e-06 3.1282959857682089e-05 0.001 -0.00020000000000000004 0.00030000000000000003
969 1.4375973075000991e-06 7.3609866192272686e-05 4.4780267615450946e-06 3.9282959857682094e-05 0.001 -0.00020000000000000001 0.00029999999999999997
970 2.6850301665589542e-06 7.3609866192272686e-05 4.4780267615450946e-06 4.7282959857682085e-05 0.001 -0.00020000000000000001 0.00029999999999999997
971 2.1613201645183594e-06 7.3609866192272686e-05 1.2478026761545662e-05 -2.4717040142317903e-05 0.001 -0.00020000000000000001 0.00029999999999999997
972 1.4671665011334291e-06 7.3609866192272686e-05 1.2478026761545662e-05 -1.6717040142317905e-05 0.001 -0.00020000000000000001 0.00029999999999999997
973 1.417507833908635e-06 7.3609866192272686e-05 1.2478026761545662e-05 -8.7170401423179074e-06 0.001 -0.00020000000000000001 0.00029999999999999997
974 1.4937306199115555e-06 7.3609866192272686e-05 1.2478026761545662e-05 -7.1704014231790608e-07 0.001 -0.00020000000000000001 0.00029999999999999997
975 2.8128661376659221e-06 7.3609866192272686e-05 1.2478026761545662e-05 7.282959857682091e-06 0.001 -0.00020000000000000001 0.00029999999999999997
976 2.2301621964903498e-06 7.3609866192272686e-05 1.2478026761545662e-05 1.5282959857682093e-05 0.001 -0.00020000000000000004 0.00030000000000000003
977 3.2677077842241549e-06 7.3609866192272686e-05 1.2478026761545662e-05 2.3282959857682091e-05 0.001 -0.00020000000000000001 0.00029999999999999997
978 2.5806303065614553e-06 7.3609866192272686e-05 1.2478026761545662e-05 3.1282959857682089e-05 0.001 -0.00020000000000000004 0.00030000000000000003
979 1.319835785624986e-06 7.3609866192272686e-05 1.2478026761545662e-05 3.9282959857682094e-05 0.001 -0.00020000000000000001 0.00029999999999999997
980 2.3567271772077294e-06 7.3609866192272686e-05 1.2478026761545662e-05 4.7282959857682085e-05 0.001 -0.00020000000000000001 0.00029999999999999997
981 2.7389534104232451e-06 7.3609866192272686e-05 2.0478026761546168e-05 -2.4717040142317903e-05 0.001 -0.00020000000000000004 0.00029999999999999992
982 2.2909096161634169e-06 7.3609866192272686e-05 2.0478026761546168e-05 -1.6717040142317905e-05 0.001 -0.00020000000000000001 0.00029999999999999997
983 3.2077801792271914e-06 7.3609866192272686e-05 2.0478026761546168e-05 -8.7170401423179074e-06 0.001 -0.00020000000000000001 0.00029999999999999997
984 2.0412513189016819e-06 7.3609866192272686e-05 2.0478026761546168e-05 -7.1704014231790608e-07 0.001 -0.00020000000000000001 0.00029999999999999997
985 1.5547857344600266e-06 7.3609866192272686e-05 2.0478026761546168e-05 7.282959857682091e-06 0.001 -0.00020000000000000001 0.00029999999999999997
986 1.5439024250511715e-06 7.3609866192272686e-05 2.0478026761546168e-05 1.5282959857682093e-05 0.001 -0.00020000000000000001 0.00029999999999999997
987 2.1912853708154028e-06 7.3609866192272686e-05 2.0478026761546168e-05 2.3282959857682091e-05 0.001 -0.00020000000000000001 0.00029999999999999997
988 1.6916113627415989e-06 7.3609866192272686e-05 2.0478026761546168e-05 3.1282959857682089e-05 0.001 -0.00020000000000000001 0.00029999999999999997
989 1.4359935696527892e-06 7.3609866192272686e-05 2.0478026761546168e-05 3.9282959857682094e-05 0.001 -0.00020000000000000001 0.00029999999999999997
990 2.4951398999725811e-06 7.3609866192272686e-05 2.0478026761546168e-05 4.7282959857682085e-05 0.001 -0.00020000000000000001 0.00029999999999999997
991 1.1881019658893748e-06 7.3609866192272686e-05 2.8478026761544184e-05 -2.4717040142317903e-05 0.001 -0.00019999999999999998 0.00029999999999999992
992 1.9021454091932546e-06 7.3609866192272686e-05 2.8478026761544184e-05 -1.6717040142317905e-05 0.001 -0.00020000000000000004 0.00030000000000000003
993 1.2302667266872636e-06 7.3609866192272686e-05 2.8478026761544184e-05 -8.7170401423179074e-06 0.001 -0.00020000000000000004 0.00030000000000000003
994 1.0650960314599642e-06 7.3609866192272686e-05 2.8478026761544184e-05 -7.1704014231790608e-07 0.001 -0.00020000000000000004 0.00030000000000000003
995 1.8923951723063671e-06 7.3609866192272686e-05 2.8478026761544184e-05 7.282959857682091e-06 0.001 -0.00020000000000000004 0.00030000000000000003
996 1.4941396635327255e-06 7.3609866192272686e-05 2.8478026761544184e-05 1.5282959857682093e-05 0.001 -0.00020000000000000001 0.00029999999999999997
997 2.2184091360643227e-06 7.3609866192272686e-05 2.8478026761544184e-05 2.3282959857682091e-05 0.001 -0.00020000000000000004 0.00030000000000000003
998 1.694076121237607e-06 7.3609866192272686e-05 2.8478026761544184e-05 3.1282959857682089e-05 0.001 -0.00019999999999999998 0.00029999999999999992
999 2.1305225421530737e-06 7.3609866192272686e-05 2.8478026761544184e-05 3.9282959857682094e-05 0.001 -0.00020000000000000004 0.00030000000000000003
1000 1.493273841501693e-06 7.3609866192272686e-05 2.8478026761544184e-05 4.7282959857682085e-05 0.001 -0.00020000000000000004 0.00030000000000000003
