ITEM: TIMESTEP
0
ITEM: NUMBER OF ATOMS
1000
ITEM: BOX BOUNDS pp pp pp
-4.0000000000000003e-05 4.0000000000000003e-05
-4.0000000000000003e-05 4.0000000000000003e-05
-4.0000000000000003e-05 4.0000000000000003e-05
ITEM: ATOMS id diameter mass xu yu zu vx vy vz fx fy fz
1 2.5316539630705636e-06 8.495944271409396e-15 -3.6000000000000001e-05 -3.6000000000000001e-05 -3.6000000000000001e-05 0 0 0 2.3860276475441906e-11 -4.7720552950883807e-12 7.1580829426325723e-12
2 1.5658603755151572e-06 2.0102854311696794e-15 -3.6000000000000001e-05 -3.6000000000000001e-05 -2.8000000000000003e-05 0 0 0 1.475788635679732e-11 -2.9515772713594633e-12 4.4273659070391963e-12
3 1.9102340532032774e-06 3.649710112132324e-15 -3.6000000000000001e-05 -3.6000000000000001e-05 -2.0000000000000005e-05 0 0 0 1.8003531804541411e-11 -3.6007063609082818e-12 5.4010595413624239e-12
4 1.6558053464592922e-06 2.3769851252082018e-15 -3.6000000000000001e-05 -3.6000000000000001e-05 -1.2000000000000004e-05 0 0 0 1.5605597736633642e-11 -3.1211195473267288e-12 4.681679320990092e-12
5 2.0575758614128358e-06 4.5610642630430688e-15 -3.6000000000000001e-05 -3.6000000000000001e-05 -4.0000000000000024e-06 0 0 0 1.9392195631254769e-11 -3.8784391262509532e-12 5.8176586893764295e-12
6 3.9834382964137001e-06 3.3095801664251728e-14 -3.6000000000000001e-05 -3.6000000000000001e-05 3.9999999999999956e-06 0 0 0 3.7543021464124559e-11 -7.5086042928249132e-12 1.1262906439237367e-11
7 3.2033595325556467e-06 1.7211379358506252e-14 -3.6000000000000001e-05 -3.6000000000000001e-05 1.1999999999999994e-05 0 0 0 3.019095232285096e-11 -6.0381904645701936e-12 9.0572856968552879e-12
8 1.8674241170473475e-06 3.4097890523248905e-15 -3.6000000000000001e-05 -3.6000000000000001e-05 1.9999999999999991e-05 0 0 0 1.7600057661757056e-11 -3.5200115323514119e-12 5.2800172985271165e-12
9 1.9838955588885943e-06 4.0884156116346234e-15 -3.6000000000000001e-05 -3.6000000000000001e-05 2.7999999999999996e-05 0 0 0 1.8697775139881475e-11 -3.739555027976295e-12 5.6093325419644417e-12
10 1.4930108569212954e-06 1.7425591139379118e-15 -3.6000000000000001e-05 -3.6000000000000001e-05 3.5999999999999987e-05 0 0 0 1.407129581950123e-11 -2.8142591639002464e-12 4.221388745850369e-12
11 1.7365375206563586e-06 2.7418970002432622e-15 -3.6000000000000001e-05 -2.8000000000000003e-05 -3.6000000000000001e-05 0 0 0 1.636648055273115e-11 -3.2732961105462301e-12 4.9099441658193461e-12
12 2.2484442923034369e-06 5.9517546241916342e-15 -3.6000000000000001e-05 -2.8000000000000003e-05 -2.8000000000000003e-05 0 0 0 2.1191088212119138e-11 -4.2382176424238277e-12 6.3573264636357419e-12
13 1.7384755428131272e-06 2.7510873396752559e-15 -3.6000000000000001e-05 -2.8000000000000003e-05 -2.0000000000000005e-05 0 0 0 1.6384745981241746e-11 -3.276949196248349e-12 4.9154237943725245e-12
14 1.3902797501725369e-06 1.4070360147617445e-15 -3.6000000000000001e-05 -2.8000000000000003e-05 -1.2000000000000004e-05 0 0 0 1.3103077948730085e-11 -2.6206155897460176e-12 3.9309233846190252e-12
15 2.168807157122433e-06 5.341477896503093e-15 -3.6000000000000001e-05 -2.8000000000000003e-05 -4.0000000000000024e-06 0 0 0 2.04405258956064e-11 -4.0881051791212801e-12 6.1321577686819193e-12
16 1.560297974505904e-06 1.9889380509938475e-15 -3.6000000000000001e-05 -2.8000000000000003e-05 3.9999999999999956e-06 0 0 0 1.4705461962356346e-11 -2.9410923924712696e-12 4.4116385887069037e-12
17 2.415382232611696e-06 7.378298551707582e-15 -3.6000000000000001e-05 -2.8000000000000003e-05 1.1999999999999994e-05 0 0 0 2.2764441232752648e-11 -4.5528882465505306e-12 6.8293323698257943e-12
18 3.0403121621523933e-06 1.4714758972197919e-14 -3.6000000000000001e-05 -2.8000000000000003e-05 1.9999999999999991e-05 0 0 0 2.8654267059712976e-11 -5.7308534119425961e-12 8.5962801179138913e-12
19 1.8462133095744682e-06 3.2949152992535182e-15 -3.6000000000000001e-05 -2.8000000000000003e-05 2.7999999999999996e-05 0 0 0 1.7400150510956543e-11 -3.4800301021913094e-12 5.2200451532869623e-12
20 2.9988033468725901e-06 1.4120256403264671e-14 -3.6000000000000001e-05 -2.8000000000000003e-05 3.5999999999999987e-05 0 0 0 2.8263055692286238e-11 -5.652611138457249e-12 8.4789167076858707e-12
21 2.0353281725534818e-06 4.4147077044741792e-15 -3.6000000000000001e-05 -2.0000000000000005e-05 -3.6000000000000001e-05 0 0 0 1.918251610361507e-11 -3.8365032207230141e-12 5.7547548310845219e-12
22 3.0091326418678961e-06 1.4266670060182292e-14 -3.6000000000000001e-05 -2.0000000000000005e-05 -2.8000000000000003e-05 0 0 0 2.8360407004108288e-11 -5.6720814008216571e-12 8.5081221012324861e-12
23 2.7569272170038241e-06 1.0971715177032559e-14 -3.6000000000000001e-05 -2.0000000000000005e-05 -2.0000000000000005e-05 0 0 0 2.5983426874262903e-11 -5.19668537485258e-12 7.7950280622788716e-12
24 1.7488201247201775e-06 2.8004901486108698e-15 -3.6000000000000001e-05 -2.0000000000000005e-05 -1.2000000000000004e-05 0 0 0 1.6482241368812686e-11 -3.2964482737625378e-12 4.944672410643805e-12
25 3.6708626345171869e-06 2.590019430477729e-14 -3.6000000000000001e-05 -2.0000000000000005e-05 -4.0000000000000024e-06 0 0 0 3.4597065254809408e-11 -6.9194130509618818e-12 1.0379119576442822e-11
26 2.4356738529529644e-06 7.5658203409398578e-15 -3.6000000000000001e-05 -2.0000000000000005e-05 3.9999999999999956e-06 0 0 0 2.2955685248933337e-11 -4.5911370497866675e-12 6.8867055746800004e-12
27 1.4529773289917308e-06 1.6061094458955343e-15 -3.6000000000000001e-05 -2.0000000000000005e-05 1.1999999999999994e-05 0 0 0 1.3693988707778825e-11 -2.7387977415557654e-12 4.1081966123336469e-12
28 1.8612603638641394e-06 3.3761365942817306e-15 -3.6000000000000001e-05 -2.0000000000000005e-05 1.9999999999999991e-05 0 0 0 1.754196565660034e-11 -3.5083931313200682e-12 5.2625896969801012e-12
29 1.8538124403770304e-06 3.3357692357374559e-15 -3.6000000000000001e-05 -2.0000000000000005e-05 2.7999999999999996e-05 0 0 0 1.7471770631465537e-11 -3.4943541262931078e-12 5.2415311894396602e-12
30 1.3067896714224622e-06 1.1684649836339345e-15 -3.6000000000000001e-05 -2.0000000000000005e-05 3.5999999999999987e-05 0 0 0 1.231620249458348e-11 -2.4632404989166965e-12 3.6948607483750436e-12
31 9.8853758056529803e-07 5.0579924301735125e-16 -3.6000000000000001e-05 -1.2000000000000004e-05 -3.6000000000000001e-05 0 0 0 9.3167472027041046e-12 -1.8633494405408216e-12 2.7950241608112311e-12
32 2.9334482034281859e-06 1.321703058116554e-14 -3.6000000000000001e-05 -1.2000000000000004e-05 -2.8000000000000003e-05 0 0 0 2.7647097976728499e-11 -5.5294195953457005e-12 8.2941293930185492e-12
33 1.921253889157627e-06 3.7132389833784394e-15 -3.6000000000000001e-05 -1.2000000000000004e-05 -2.0000000000000005e-05 0 0 0 1.8107391311575261e-11 -3.6214782623150527e-12 5.4322173934725778e-12
34 2.4806041749071127e-06 7.9922863068393982e-15 -3.6000000000000001e-05 -1.2000000000000004e-05 -1.2000000000000004e-05 0 0 0 2.3379143557057068e-11 -4.6758287114114133e-12 7.0137430671171199e-12
35 2.8897552252547214e-06 1.2635190536757873e-14 -3.6000000000000001e-05 -1.2000000000000004e-05 -4.0000000000000024e-06 0 0 0 2.7235301358998854e-11 -5.4470602717997713e-12 8.1705904076996549e-12
36 1.480753558496519e-06 1.6999923901208373e-15 -3.6000000000000001e-05 -1.2000000000000004e-05 3.9999999999999956e-06 0 0 0 1.3955773503448825e-11 -2.7911547006897654e-12 4.1867320510346473e-12
37 1.838275071803949e-06 3.2525959439107972e-15 -3.6000000000000001e-05 -1.2000000000000004e-05 1.1999999999999994e-05 0 0 0 1.7325334382569606e-11 -3.4650668765139208e-12 5.1976003147708816e-12
38 1.1793280896969313e-06 8.5882079348521546e-16 -3.6000000000000001e-05 -1.2000000000000004e-05 1.9999999999999991e-05 0 0 0 1.1114905388291892e-11 -2.2229810776583785e-12 3.3344716164875673e-12
39 2.00944314690733e-06 4.2484038329125284e-15 -3.6000000000000001e-05 -1.2000000000000004e-05 2.7999999999999996e-05 0 0 0 1.8938555484391271e-11 -3.7877110968782535e-12 5.6815666453173811e-12
40 2.4544711173223787e-06 7.742342870593321e-15 -3.6000000000000001e-05 -1.2000000000000004e-05 3.5999999999999987e-05 0 0 0 2.3132845291884951e-11 -4.6265690583769893e-12 6.9398535875654844e-12
41 1.5295905571135205e-06 1.8738041817053471e-15 -3.6000000000000001e-05 -4.0000000000000024e-06 -3.6000000000000001e-05 0 0 0 1.4416051371684464e-11 -2.8832102743368931e-12 4.3248154115053387e-12
42 3.1404422477514026e-06 1.6217020134893021e-14 -3.6000000000000001e-05 -4.0000000000000024e-06 -2.8000000000000003e-05 0 0 0 2.9597970883676471e-11 -5.9195941767352947e-12 8.87939126510294e-12
43 1.738514601360805e-06 2.7512727709123915e-15 -3.6000000000000001e-05 -4.0000000000000024e-06 -2.0000000000000005e-05 0 0 0 1.638511409938108e-11 -3.277022819876216e-12 4.9155342298143234e-12
44 1.4543932123564363e-06 1.6108093410591875e-15 -3.6000000000000001e-05 -4.0000000000000024e-06 -1.2000000000000004e-05 0 0 0 1.3707333094109521e-11 -2.741466618821904e-12 4.112199928232857e-12
45 2.2155742104234287e-06 5.6945252906195224e-15 -3.6000000000000001e-05 -4.0000000000000024e-06 -4.0000000000000024e-06 0 0 0 2.0881294988847752e-11 -4.1762589977695495e-12 6.2643884966543247e-12
46 2.4500830610652638e-06 7.7008922286241729e-15 -3.6000000000000001e-05 -4.0000000000000024e-06 3.9999999999999956e-06 0 0 0 2.3091488835982277e-11 -4.6182977671964546e-12 6.9274466507946823e-12
47 2.1546849963153145e-06 5.2378129488031308e-15 -3.6000000000000001e-05 -4.0000000000000024e-06 1.1999999999999994e-05 0 0 0 2.0307427665673026e-11 -4.0614855331346054e-12 6.0922282997019084e-12
48 1.7799314675864528e-06 2.9526261752814734e-15 -3.6000000000000001e-05 -4.0000000000000024e-06 1.9999999999999991e-05 0 0 0 1.6775458867388697e-11 -3.3550917734777391e-12 5.0326376602166096e-12
49 2.1717811500020411e-06 5.3634816651670964e-15 -3.6000000000000001e-05 -4.0000000000000024e-06 2.7999999999999996e-05 0 0 0 2.0468555118153617e-11 -4.0937110236307226e-12 6.1405665354460851e-12
50 2.8501659728790174e-06 1.21229712431302e-14 -3.6000000000000001e-05 -4.0000000000000024e-06 3.5999999999999987e-05 0 0 0 2.6862181445724981e-11 -5.3724362891449952e-12 8.0586544337174952e-12
51 1.5239561751527053e-06 1.8531733942238767e-15 -3.6000000000000001e-05 3.9999999999999956e-06 -3.6000000000000001e-05 0 0 0 1.4362948572757616e-11 -2.8725897145515237e-12 4.3088845718272849e-12
52 2.888839937477119e-06 1.2623188302701288e-14 -3.6000000000000001e-05 3.9999999999999956e-06 -2.8000000000000003e-05 0 0 0 2.7226674974924743e-11 -5.4453349949849492e-12 8.1680024924774222e-12
53 1.2333552060527399e-06 9.8234295820429518e-16 -3.6000000000000001e-05 3.9999999999999956e-06 -2.0000000000000005e-05 0 0 0 1.1624098963806039e-11 -2.324819792761208e-12 3.4872296891418114e-12
54 1.9825743300062004e-06 4.0802526776529182e-15 -3.6000000000000001e-05 3.9999999999999956e-06 -1.2000000000000004e-05 0 0 0 1.8685322851029557e-11 -3.7370645702059116e-12 5.6055968553088679e-12
55 1.0173636179503471e-06 5.5134981155647523e-16 -3.6000000000000001e-05 3.9999999999999956e-06 -4.0000000000000024e-06 0 0 0 9.58842620454703e-12 -1.9176852409094056e-12 2.8765278613641086e-12
56 1.5685202320673703e-06 2.0205471868112363e-15 -3.6000000000000001e-05 3.9999999999999956e-06 3.9999999999999956e-06 0 0 0 1.4782954914209424e-11 -2.9565909828418844e-12 4.4348864742628265e-12
57 1.7573838179574151e-06 2.841832597554221e-15 -3.6000000000000001e-05 3.9999999999999956e-06 1.1999999999999994e-05 0 0 0 1.6562952276097793e-11 -3.3125904552195581e-12 4.9688856828293386e-12
58 2.1451485658430518e-06 5.1685741164873534e-15 -3.6000000000000001e-05 3.9999999999999956e-06 1.9999999999999991e-05 0 0 0 2.0217548925933637e-11 -4.0435097851867267e-12 6.0652646777800917e-12
59 2.3721711516621756e-06 6.989348289602856e-15 -3.6000000000000001e-05 3.9999999999999956e-06 2.7999999999999996e-05 0 0 0 2.2357186389358588e-11 -4.4714372778717177e-12 6.7071559168075773e-12
60 1.4625310357684355e-06 1.6379999901741967e-15 -3.6000000000000001e-05 3.9999999999999956e-06 3.5999999999999987e-05 0 0 0 1.3784030272851564e-11 -2.7568060545703126e-12 4.1352090818554693e-12
61 1.1928422744233857e-06 8.8868467039724868e-16 -3.6000000000000001e-05 1.1999999999999994e-05 -3.6000000000000001e-05 0 0 0 1.1242273578659547e-11 -2.2484547157319094e-12 3.3726820735978635e-12
62 2.812989898449193e-06 1.1654754776311362e-14 -3.6000000000000001e-05 1.1999999999999994e-05 -2.8000000000000003e-05 0 0 0 2.6511805198770851e-11 -5.3023610397541708e-12 7.9535415596312546e-12
63 2.2139712321781337e-06 5.6821741844195441e-15 -3.6000000000000001e-05 1.1999999999999994e-05 -2.0000000000000005e-05 0 0 0 2.0866187274809902e-11 -4.1732374549619809e-12 6.2598561824429693e-12
64 3.0068932291967355e-06 1.4234841761316507e-14 -3.6000000000000001e-05 1.1999999999999994e-05 -1.2000000000000004e-05 0 0 0 2.8339301036920066e-11 -5.6678602073840125e-12 8.5017903110760187e-12
65 1.5180751390396209e-06 1.8318015680316931e-15 -3.6000000000000001e-05 1.1999999999999994e-05 -4.0000000000000024e-06 0 0 0 1.4307521113212531e-11 -2.8615042226425065e-12 4.2922563339637589e-12
66 2.1288791591253629e-06 5.0518640357199114e-15 -3.6000000000000001e-05 1.1999999999999994e-05 3.9999999999999956e-06 0 0 0 2.0064213380065967e-11 -4.0128426760131941e-12 6.0192640140197903e-12
67 3.5423575286716169e-06 2.3274255574371962e-14 -3.6000000000000001e-05 1.1999999999999994e-05 1.1999999999999994e-05 0 0 0 3.3385933165389741e-11 -6.677186633077948e-12 1.0015779949616922e-11
68 2.1814856823734121e-06 5.4357030470657583e-15 -3.6000000000000001e-05 1.1999999999999994e-05 1.9999999999999991e-05 0 0 0 2.0560018180966886e-11 -4.1120036361933765e-12 6.1680054542900651e-12
69 3.5711859271487763e-06 2.3847123830202819e-14 -3.6000000000000001e-05 1.1999999999999994e-05 2.7999999999999996e-05 0 0 0 3.3657634420001551e-11 -6.7315268840003098e-12 1.0097290326000464e-11
70 1.5652299347446248e-06 2.0078582881323081e-15 -3.6000000000000001e-05 1.1999999999999994e-05 3.5999999999999987e-05 0 0 0 1.4751944592517633e-11 -2.9503889185035267e-12 4.4255833777552903e-12
71 2.5267774544697368e-06 8.4469437448320342e-15 -3.6000000000000001e-05 1.9999999999999991e-05 -3.6000000000000001e-05 0 0 0 2.3814316464655332e-11 -4.7628632929310672e-12 7.1442949393965988e-12
72 1.8861915876103843e-06 3.513630052584064e-15 -3.6000000000000001e-05 1.9999999999999991e-05 -2.8000000000000003e-05 0 0 0 1.7776936904698959e-11 -3.5553873809397921e-12 5.3330810714096871e-12
73 1.5407852243331577e-06 1.9152476469866765e-15 -3.6000000000000001e-05 1.9999999999999991e-05 -2.0000000000000005e-05 0 0 0 1.4521558624574249e-11 -2.90431172491485e-12 4.3564675873722742e-12
74 1.3961271313249609e-06 1.4248643583333813e-15 -3.6000000000000001e-05 1.9999999999999991e-05 -1.2000000000000004e-05 0 0 0 1.3158188217743669e-11 -2.6316376435487337e-12 3.9474564653231002e-12
75 1.5133308434406108e-06 1.8146809204591908e-15 -3.6000000000000001e-05 1.9999999999999991e-05 -4.0000000000000024e-06 0 0 0 1.4262807180611606e-11 -2.8525614361223215e-12 4.2788421541834813e-12
76 2.4113922857841744e-06 7.3417944962683445e-15 -3.6000000000000001e-05 1.9999999999999991e-05 3.9999999999999956e-06 0 0 0 2.2726836869827984e-11 -4.5453673739655979e-12 6.8180510609483944e-12
77 1.8368486259271223e-06 3.2450300695009636e-15 -3.6000000000000001e-05 1.9999999999999991e-05 1.1999999999999994e-05 0 0 0 1.7311890446907463e-11 -3.4623780893814919e-12 5.1935671340722379e-12
78 2.3407406403703541e-06 6.71519314936019e-15 -3.6000000000000001e-05 1.9999999999999991e-05 1.9999999999999991e-05 0 0 0 2.2060960799239719e-11 -4.4121921598479435e-12 6.6182882397719144e-12
79 3.5532049687596403e-06 2.3488722903573552e-14 -3.6000000000000001e-05 1.9999999999999991e-05 2.7999999999999996e-05 0 0 0 3.3488167879662115e-11 -6.6976335759324216e-12 1.0046450363898632e-11
80 1.3746311392391866e-06 1.3600571418018549e-15 -3.6000000000000001e-05 1.9999999999999991e-05 3.5999999999999987e-05 0 0 0 1.2955593265288789e-11 -2.5911186530577575e-12 3.8866779795866363e-12
81 2.7063117774932587e-06 1.0378440621183051e-14 -3.6000000000000001e-05 2.7999999999999996e-05 -3.6000000000000001e-05 0 0 0 2.550638759548907e-11 -5.1012775190978155e-12 7.6519162786467205e-12
82 1.4952839642907711e-06 1.7505303707986051e-15 -3.6000000000000001e-05 2.7999999999999996e-05 -2.8000000000000003e-05 0 0 0 1.4092719351739528e-11 -2.818543870347906e-12 4.2278158055218576e-12
83 1.1347420564937832e-06 7.6505045195196284e-16 -3.6000000000000001e-05 2.7999999999999996e-05 -2.0000000000000005e-05 0 0 0 1.0694691925200729e-11 -2.1389383850401463e-12 3.2084075775602184e-12
84 2.404537071864627e-06 7.2793575855935781e-15 -3.6000000000000001e-05 2.7999999999999996e-05 -1.2000000000000004e-05 0 0 0 2.2662228000762676e-11 -4.5324456001525349e-12 6.7986684002288015e-12
85 1.6634270012735487e-06 2.4099601577775861e-15 -3.6000000000000001e-05 2.7999999999999996e-05 -4.0000000000000024e-06 0 0 0 1.5677430140951638e-11 -3.1354860281903283e-12 4.7032290422854917e-12
86 2.1481389251823572e-06 5.1902193999159779e-15 -3.6000000000000001e-05 2.7999999999999996e-05 3.9999999999999956e-06 0 0 0 2.0245732398729502e-11 -4.0491464797459011e-12 6.07371971961885e-12
87 1.929205059167125e-06 3.7595321125248757e-15 -3.6000000000000001e-05 2.7999999999999996e-05 1.1999999999999994e-05 0 0 0 1.8182329323443109e-11 -3.6364658646886211e-12 5.4546987970329317e-12
88 1.0726348608432138e-06 6.461812392030408e-16 -3.6000000000000001e-05 2.7999999999999996e-05 1.9999999999999991e-05 0 0 0 1.0109345396428051e-11 -2.0218690792856098e-12 3.032803618928415e-12
89 1.7505161188047914e-06 2.8086457427040377e-15 -3.6000000000000001e-05 2.7999999999999996e-05 2.7999999999999996e-05 0 0 0 1.6498225736482951e-11 -3.29964514729659e-12 4.9494677209448846e-12
90 1.71394917242544e-06 2.6362854839937769e-15 -3.6000000000000001e-05 2.7999999999999996e-05 3.5999999999999987e-05 0 0 0 1.6153590386154204e-11 -3.2307180772308402e-12 4.8460771158462605e-12
91 2.5440698738770457e-06 8.6215574789154055e-15 -3.6000000000000001e-05 3.5999999999999987e-05 -3.6000000000000001e-05 0 0 0 2.3977293677973714e-11 -4.7954587355947437e-12 7.1931881033921143e-12
92 2.0005875535290661e-06 4.192482997131548e-15 -3.6000000000000001e-05 3.5999999999999987e-05 -2.8000000000000003e-05 0 0 0 1.8855093483090274e-11 -3.7710186966180554e-12 5.6565280449270819e-12
93 1.7365787341756282e-06 2.7420922265003203e-15 -3.6000000000000001e-05 3.5999999999999987e-05 -2.0000000000000005e-05 0 0 0 1.6366868980999251e-11 -3.2733737961998503e-12 4.9100606942997742e-12
94 1.6846793412667079e-06 2.5035160103360851e-15 -3.6000000000000001e-05 3.5999999999999987e-05 -1.2000000000000004e-05 0 0 0 1.5877728726533946e-11 -3.175545745306789e-12 4.7633186179601828e-12
95 1.5736670924019422e-06 2.0405028792639314e-15 -3.6000000000000001e-05 3.5999999999999987e-05 -4.0000000000000024e-06 0 0 0 1.4831462930057856e-11 -2.9662925860115718e-12 4.4494388790173568e-12
96 1.3248250609402746e-06 1.2175147371647841e-15 -3.6000000000000001e-05 3.5999999999999987e-05 3.9999999999999956e-06 0 0 0 1.248618203622485e-11 -2.4972364072449704e-12 3.7458546108674549e-12
97 2.0478320756461223e-06 4.4965729731903056e-15 -3.6000000000000001e-05 3.5999999999999987e-05 1.1999999999999994e-05 0 0 0 1.9300362613906189e-11 -3.8600725227812374e-12 5.7901087841718553e-12
98 2.8576129743012729e-06 1.2218245563496851e-14 -3.6000000000000001e-05 3.5999999999999987e-05 1.9999999999999991e-05 0 0 0 2.6932367780603275e-11 -5.3864735561206545e-12 8.0797103341809821e-12
99 1.3822872660854447e-06 1.3829088120158903e-15 -3.6000000000000001e-05 3.5999999999999987e-05 2.7999999999999996e-05 0 0 0 1.3027750560854259e-11 -2.6055501121708516e-12 3.908325168256277e-12
100 3.2384080310726104e-06 1.7782520820684228e-14 -3.6000000000000001e-05 3.5999999999999987e-05 3.5999999999999987e-05 0 0 0 3.0521276639231698e-11 -6.1042553278463392e-12 9.1563829917695092e-12
101 2.2822704336011917e-06 6.2244349783506748e-15 -2.8000000000000003e-05 -3.6000000000000001e-05 -3.6000000000000001e-05 0 0 0 2.1509892083120088e-11 -4.3019784166240173e-12 6.4529676249360267e-12
102 2.2568605441711303e-06 6.0188399413840247e-15 -2.8000000000000003e-05 -3.6000000000000001e-05 -2.8000000000000003e-05 0 0 0 2.1270409517234058e-11 -4.2540819034468114e-12 6.3811228551702175e-12
103 2.2472541203189021e-06 5.9423082758152748e-15 -2.8000000000000003e-05 -3.6000000000000001e-05 -2.0000000000000005e-05 0 0 0 2.1179871105429767e-11 -4.2359742210859532e-12 6.353961331628931e-12
104 2.6434115504026178e-06 9.6714807617872304e-15 -2.8000000000000003e-05 -3.6000000000000001e-05 -1.2000000000000004e-05 0 0 0 2.4913566921477808e-11 -4.9827133842955627e-12 7.474070076443342e-12
105 1.7254109923689289e-06 2.6895294489537447e-15 -2.8000000000000003e-05 -3.6000000000000001e-05 -4.0000000000000024e-06 0 0 0 1.6261615494147903e-11 -3.2523230988295808e-12 4.8784846482443708e-12
106 1.7798342765228924e-06 2.9521425276565213e-15 -2.8000000000000003e-05 -3.6000000000000001e-05 3.9999999999999956e-06 0 0 0 1.6774542863194873e-11 -3.3549085726389744e-12 5.0323628589584612e-12
107 1.9563607103590048e-06 3.9205357571294807e-15 -2.8000000000000003e-05 -3.6000000000000001e-05 1.1999999999999994e-05 0 0 0 1.8438265306306677e-11 -3.6876530612613359e-12 5.5314795918920026e-12
108 2.605045582563822e-06 9.2564530571336323e-15 -2.8000000000000003e-05 -3.6000000000000001e-05 1.9999999999999991e-05 0 0 0 2.4551976193347137e-11 -4.9103952386694288e-12 7.3655928580041404e-12
109 1.8819761638381886e-06 3.4901249709318142e-15 -2.8000000000000003e-05 -3.6000000000000001e-05 2.7999999999999996e-05 0 0 0 1.7737207471635465e-11 -3.5474414943270933e-12 5.3211622414906392e-12
110 1.6805823455654924e-06 2.4852953844616186e-15 -2.8000000000000003e-05 -3.6000000000000001e-05 3.5999999999999987e-05 0 0 0 1.583911545174376e-11 -3.167823090348753e-12 4.7517346355231278e-12
111 2.3809329366643677e-06 7.0670816817333603e-15 -2.8000000000000003e-05 -2.8000000000000003e-05 -3.6000000000000001e-05 0 0 0 2.2439764267544249e-11 -4.4879528535088498e-12 6.7319292802632755e-12
112 2.91201644438243e-06 1.2929451212292451e-14 -2.8000000000000003e-05 -2.8000000000000003e-05 -2.8000000000000003e-05 0 0 0 2.7445108406413538e-11 -5.4890216812827075e-12 8.2335325219240625e-12
113 2.0266708874042625e-06 4.3586129950437292e-15 -2.8000000000000003e-05 -2.8000000000000003e-05 -2.0000000000000005e-05 0 0 0 1.9100923113340614e-11 -3.8201846226681223e-12 5.7302769340021847e-12
114 1.3734593630458104e-06 1.3565820470971653e-15 -2.8000000000000003e-05 -2.8000000000000003e-05 -1.2000000000000004e-05 0 0 0 1.2944549534846504e-11 -2.5889099069693013e-12 3.8833648604539507e-12
115 1.437084087548033e-06 1.5539790661254817e-15 -2.8000000000000003e-05 -2.8000000000000003e-05 -4.0000000000000024e-06 0 0 0 1.3544198436095076e-11 -2.7088396872190153e-12 4.0632595308285225e-12
116 4.0387418299309832e-06 3.4493471088756135e-14 -2.8000000000000003e-05 -2.8000000000000003e-05 3.9999999999999956e-06 0 0 0 3.8064244987970923e-11 -7.6128489975941856e-12 1.1419273496391276e-11
117 1.9243790731250478e-06 3.7313887578226014e-15 -2.8000000000000003e-05 -2.8000000000000003e-05 1.1999999999999994e-05 0 0 0 1.8136845476554757e-11 -3.6273690953109522e-12 5.4410536429664269e-12
118 1.2399864051405386e-06 9.9827315721456268e-16 -2.8000000000000003e-05 -2.8000000000000003e-05 1.9999999999999991e-05 0 0 0 1.1686596542822199e-11 -2.3373193085644402e-12 3.5059789628466591e-12
119 2.2438279472175594e-06 5.9151706872707102e-15 -2.8000000000000003e-05 -2.8000000000000003e-05 2.7999999999999996e-05 0 0 0 2.1147580184694453e-11 -4.2295160369388913e-12 6.3442740554083349e-12
120 1.7626926414621109e-06 2.8676648749653663e-15 -2.8000000000000003e-05 -2.8000000000000003e-05 3.5999999999999987e-05 0 0 0 1.6612986758862466e-11 -3.3225973517724938e-12 4.983896027658739e-12
121 2.3246431541391542e-06 6.5776007562071387e-15 -2.8000000000000003e-05 -2.0000000000000005e-05 -3.6000000000000001e-05 0 0 0 2.1909245565784119e-11 -4.3818491131568229e-12 6.5727736697352359e-12
122 1.8430123958975612e-06 3.2778070957003208e-15 -2.8000000000000003e-05 -2.0000000000000005e-05 -2.8000000000000003e-05 0 0 0 1.7369982610280107e-11 -3.4739965220560205e-12 5.2109947830840318e-12
123 2.5599579439528795e-06 8.7840968221168111e-15 -2.8000000000000003e-05 -2.0000000000000005e-05 -2.0000000000000005e-05 0 0 0 2.4127035210663592e-11 -4.8254070421327176e-12 7.2381105631990784e-12
124 1.8594633369482586e-06 3.3663671616386901e-15 -2.8000000000000003e-05 -2.0000000000000005e-05 -1.2000000000000004e-05 0 0 0 1.7525029076928633e-11 -3.5050058153857272e-12 5.2575087230785898e-12
125 3.1888103358810381e-06 1.6977928075252485e-14 -2.8000000000000003e-05 -2.0000000000000005e-05 -4.0000000000000024e-06 0 0 0 3.0053829374685213e-11 -6.0107658749370421e-12 9.0161488124055619e-12
126 2.7393393577563023e-06 1.0763069242907726e-14 -2.8000000000000003e-05 -2.0000000000000005e-05 3.9999999999999956e-06 0 0 0 2.5817665206049744e-11 -5.1635330412099487e-12 7.7452995618149227e-12
127 1.930348052153915e-06 3.7662182839522241e-15 -2.8000000000000003e-05 -2.0000000000000005e-05 1.1999999999999994e-05 0 0 0 1.8193101778554319e-11 -3.6386203557108645e-12 5.4579305335662952e-12
128 1.3828601332071697e-06 1.3846288988166295e-15 -2.8000000000000003e-05 -2.0000000000000005e-05 1.9999999999999991e-05 0 0 0 1.3033149706277541e-11 -2.6066299412555088e-12 3.9099449118832619e-12
129 2.7882964138750448e-06 1.1350511756613033e-14 -2.8000000000000003e-05 -2.0000000000000005e-05 2.7999999999999996e-05 0 0 0 2.6279074589581819e-11 -5.2558149179163645e-12 7.8837223768745452e-12
130 1.6930766829742917e-06 2.5411395074501395e-15 -2.8000000000000003e-05 -2.0000000000000005e-05 3.5999999999999987e-05 0 0 0 1.5956871807588629e-11 -3.1913743615177263e-12 4.7870615422765885e-12
131 1.3803043622310728e-06 1.3769659588491286e-15 -2.8000000000000003e-05 -1.2000000000000004e-05 -3.6000000000000001e-05 0 0 0 1.3009062132309249e-11 -2.6018124264618503e-12 3.9027186396927744e-12
132 9.9618244193068405e-07 5.1762503266703794e-16 -2.8000000000000003e-05 -1.2000000000000004e-05 -2.8000000000000003e-05 0 0 0 9.3887983236137321e-12 -1.8777596647227467e-12 2.8166394970841194e-12
133 2.8772064960175277e-06 1.2471299781230799e-14 -2.8000000000000003e-05 -1.2000000000000004e-05 -2.0000000000000005e-05 0 0 0 2.7117032372248486e-11 -5.4234064744496981e-12 8.1351097116745443e-12
134 1.4008366097465375e-06 1.4393323010366838e-15 -2.8000000000000003e-05 -1.2000000000000004e-05 -1.2000000000000004e-05 0 0 0 1.3202574006178063e-11 -2.6405148012356123e-12 3.9607722018534185e-12
135 2.7466913133725531e-06 1.0849961181152736e-14 -2.8000000000000003e-05 -1.2000000000000004e-05 -4.0000000000000024e-06 0 0 0 2.5886955755310341e-11 -5.1773911510620691e-12 7.7660867265931012e-12
136 1.8838824518007823e-06 3.5007413508105229e-15 -2.8000000000000003e-05 -1.2000000000000004e-05 3.9999999999999956e-06 0 0 0 1.7755173812412195e-11 -3.5510347624824394e-12 5.3265521437236574e-12
137 1.9053593732699798e-06 3.6218405329301698e-15 -2.8000000000000003e-05 -1.2000000000000004e-05 1.1999999999999994e-05 0 0 0 1.7957589028540264e-11 -3.5915178057080527e-12 5.3872767085620788e-12
138 1.975434065983146e-06 4.0363260310718858e-15 -2.8000000000000003e-05 -1.2000000000000004e-05 1.9999999999999991e-05 0 0 0 1.8618027448031e-11 -3.7236054896062001e-12 5.5854082344092997e-12
139 1.3008952011602243e-06 1.1527245888149675e-15 -2.8000000000000003e-05 -1.2000000000000004e-05 2.7999999999999996e-05 0 0 0 1.226064842116553e-11 -2.4521296842331057e-12 3.6781945263496586e-12
140 1.9217397828800578e-06 3.716056980303502e-15 -2.8000000000000003e-05 -1.2000000000000004e-05 3.5999999999999987e-05 0 0 0 1.8111970752021702e-11 -3.6223941504043401e-12 5.4335912256065104e-12
141 3.0179666794695575e-06 1.4392689091461547e-14 -2.8000000000000003e-05 -4.0000000000000024e-06 -3.6000000000000001e-05 0 0 0 2.844366584700103e-11 -5.6887331694002061e-12 8.533099754100308e-12
142 1.3944586969693619e-06 1.4197621307033015e-15 -2.8000000000000003e-05 -4.0000000000000024e-06 -2.8000000000000003e-05 0 0 0 1.3142463594400029e-11 -2.6284927188800059e-12 3.9427390783200082e-12
143 1.4218844400998722e-06 1.505190703707255e-15 -2.8000000000000003e-05 -4.0000000000000024e-06 -2.0000000000000005e-05 0 0 0 1.3400945133814184e-11 -2.680189026762837e-12 4.0202835401442544e-12
144 1.8928723930716906e-06 3.5510978059900177e-15 -2.8000000000000003e-05 -4.0000000000000024e-06 -1.2000000000000004e-05 0 0 0 1.7839902012770862e-11 -3.5679804025541723e-12 5.3519706038312597e-12
145 2.6872115092104047e-06 1.0160244872324613e-14 -2.8000000000000003e-05 -4.0000000000000024e-06 -4.0000000000000024e-06 0 0 0 2.5326371807932046e-11 -5.0652743615864085e-12 7.5979115423796127e-12
146 2.4761274805115385e-06 7.9490938142190814e-15 -2.8000000000000003e-05 -4.0000000000000024e-06 3.9999999999999956e-06 0 0 0 2.3336951706380559e-11 -4.6673903412761116e-12 7.0010855119141673e-12
147 2.5316218109319024e-06 8.495620578701279e-15 -2.8000000000000003e-05 -4.0000000000000024e-06 1.1999999999999994e-05 0 0 0 2.385997344867406e-11 -4.771994689734811e-12 7.1579920346022181e-12
148 1.9489923895895351e-06 3.8764041708743108e-15 -2.8000000000000003e-05 -4.0000000000000024e-06 1.9999999999999991e-05 0 0 0 1.8368820519110701e-11 -3.6737641038221393e-12 5.5106461557332102e-12
149 1.7266431691383123e-06 2.6952956279900375e-15 -2.8000000000000003e-05 -4.0000000000000024e-06 2.7999999999999996e-05 0 0 0 1.6273228486607763e-11 -3.254645697321552e-12 4.8819685459823289e-12
150 1.3616442605217198e-06 1.3218726035361596e-15 -2.8000000000000003e-05 -4.0000000000000024e-06 3.5999999999999987e-05 0 0 0 1.2833194816973224e-11 -2.5666389633946446e-12 3.8499584450919677e-12
151 2.0840815420855989e-06 4.7396114939162071e-15 -2.8000000000000003e-05 3.9999999999999956e-06 -3.6000000000000001e-05 0 0 0 1.9642005786294613e-11 -3.9284011572589226e-12 5.8926017358883831e-12
152 2.70720904814492e-06 1.0388766879292456e-14 -2.8000000000000003e-05 3.9999999999999956e-06 -2.8000000000000003e-05 0 0 0 2.5514844172151691e-11 -5.1029688344303381e-12 7.6544532516455072e-12
153 2.6334706346576561e-06 9.562777747188816e-15 -2.8000000000000003e-05 3.9999999999999956e-06 -2.0000000000000005e-05 0 0 0 2.4819875997854831e-11 -4.963975199570966e-12 7.4459627993564485e-12
154 1.7233684640790553e-06 2.6799892185665239e-15 -2.8000000000000003e-05 3.9999999999999956e-06 -1.2000000000000004e-05 0 0 0 1.6242365118537255e-11 -3.248473023707451e-12 4.8727095355611774e-12
155 1.6014687584249535e-06 2.150572236341038e-15 -2.8000000000000003e-05 3.9999999999999956e-06 -4.0000000000000024e-06 0 0 0 1.5093487459264205e-11 -3.0186974918528403e-12 4.5280462377792604e-12
156 3.9867137581955854e-06 3.3177509867493157e-14 -2.8000000000000003e-05 3.9999999999999956e-06 3.9999999999999956e-06 0 0 0 3.7573891964137821e-11 -7.5147783928275629e-12 1.1272167589241344e-11
157 2.0999530080129359e-06 4.8487227446527228e-15 -2.8000000000000003e-05 3.9999999999999956e-06 1.1999999999999994e-05 0 0 0 1.9791590828571685e-11 -3.9583181657143364e-12 5.9374772485715054e-12
158 2.8949693893433766e-06 1.2703709388348319e-14 -2.8000000000000003e-05 3.9999999999999956e-06 1.9999999999999991e-05 0 0 0 2.7284443697785445e-11 -5.4568887395570882e-12 8.1853331093356335e-12
159 2.1898459754910616e-06 5.4984379796876811e-15 -2.8000000000000003e-05 3.9999999999999956e-06 2.7999999999999996e-05 0 0 0 2.0638812087287683e-11 -4.1277624174575357e-12 6.1916436261863052e-12
160 1.850665169239829e-06 3.3188083668266404e-15 -2.8000000000000003e-05 3.9999999999999956e-06 3.5999999999999987e-05 0 0 0 1.7442108299815072e-11 -3.4884216599630144e-12 5.2326324899445222e-12
161 3.4115617139367397e-06 2.0790183285326809e-14 -2.8000000000000003e-05 1.1999999999999994e-05 -3.6000000000000001e-05 0 0 0 3.2153211653315596e-11 -6.4306423306631199e-12 9.6459634959946766e-12
162 2.3746015608998737e-06 7.010853129078512e-15 -2.8000000000000003e-05 1.1999999999999994e-05 -2.8000000000000003e-05 0 0 0 2.2380092456777696e-11 -4.4760184913555402e-12 6.7140277370333079e-12
163 1.9883637338311137e-06 4.1161019432882314e-15 -2.8000000000000003e-05 1.1999999999999994e-05 -2.0000000000000005e-05 0 0 0 1.8739886696604592e-11 -3.7479773393209194e-12 5.6219660089813775e-12
164 1.7600160173060538e-06 2.8546211745307366e-15 -2.8000000000000003e-05 1.1999999999999994e-05 -1.2000000000000004e-05 0 0 0 1.6587760170507196e-11 -3.3175520341014389e-12 4.9763280511521585e-12
165 1.5068939881683846e-06 1.7916233876358816e-15 -2.8000000000000003e-05 1.1999999999999994e-05 -4.0000000000000024e-06 0 0 0 1.4202141248905265e-11 -2.8404282497810533e-12 4.2606423746715787e-12
166 1.6620740173303291e-06 2.4040843615966286e-15 -2.8000000000000003e-05 1.1999999999999994e-05 3.9999999999999956e-06 0 0 0 1.5664678567702307e-11 -3.1329357135404621e-12 4.6994035703106917e-12
167 1.9301280909204775e-06 3.7649309602119291e-15 -2.8000000000000003e-05 1.1999999999999994e-05 1.1999999999999994e-05 0 0 0 1.8191028692769194e-11 -3.6382057385538379e-12 5.4573086078307568e-12
168 1.1561316764210571e-06 8.0913413575536157e-16 -2.8000000000000003e-05 1.1999999999999994e-05 1.9999999999999991e-05 0 0 0 1.0896284343680535e-11 -2.1792568687361069e-12 3.26888530310416e-12
169 1.9310860903442433e-06 3.7705397986141843e-15 -2.8000000000000003e-05 1.1999999999999994e-05 2.7999999999999996e-05 0 0 0 1.8200057624624731e-11 -3.6400115249249455e-12 5.4600172873874183e-12
170 1.5225742370058702e-06 1.848136537974325e-15 -2.8000000000000003e-05 1.1999999999999994e-05 3.5999999999999987e-05 0 0 0 1.434992411256818e-11 -2.8699848225136354e-12 4.3049772337704536e-12
171 3.2054625859836748e-06 1.724530020195587e-14 -2.8000000000000003e-05 1.9999999999999991e-05 -3.6000000000000001e-05 0 0 0 3.0210773134449761e-11 -6.0421546268899533e-12 9.0632319403349279e-12
172 1.432193866509741e-06 1.5381689871684338e-15 -2.8000000000000003e-05 1.9999999999999991e-05 -2.8000000000000003e-05 0 0 0 1.349810918863009e-11 -2.6996218377260182e-12 4.0494327565890263e-12
173 2.2375882491690953e-06 5.8659605814434587e-15 -2.8000000000000003e-05 1.9999999999999991e-05 -2.0000000000000005e-05 0 0 0 2.1088772416045434e-11 -4.217754483209087e-12 6.326631724813629e-12
174 1.5407706171975308e-06 1.9151931760264024e-15 -2.8000000000000003e-05 1.9999999999999991e-05 -1.2000000000000004e-05 0 0 0 1.4521420955564323e-11 -2.9042841911128642e-12 4.3564262866692963e-12
175 2.1960041401523457e-06 5.5449557660554928e-15 -2.8000000000000003e-05 1.9999999999999991e-05 -4.0000000000000024e-06 0 0 0 2.0696851421866137e-11 -4.1393702843732283e-12 6.2090554265598409e-12
176 1.464120774740248e-06 1.6433472078352119e-15 -2.8000000000000003e-05 1.9999999999999991e-05 3.9999999999999956e-06 0 0 0 1.3799013209676479e-11 -2.7598026419352963e-12 4.1397039629029433e-12
177 1.9330139078731357e-06 3.7818435490440308e-15 -2.8000000000000003e-05 1.9999999999999991e-05 1.1999999999999994e-05 0 0 0 1.8218226876783422e-11 -3.6436453753566844e-12 5.4654680630350257e-12
178 1.9855045097205159e-06 4.0983708675304412e-15 -2.8000000000000003e-05 1.9999999999999991e-05 1.9999999999999991e-05 0 0 0 1.8712939144222132e-11 -3.7425878288444254e-12 5.6138817432666388e-12
179 1.8430704853097082e-06 3.2781170424307268e-15 -2.8000000000000003e-05 1.9999999999999991e-05 2.7999999999999996e-05 0 0 0 1.7370530090091465e-11 -3.4741060180182921e-12 5.2111590270274383e-12
180 3.067190919350793e-06 1.5108489658011962e-14 -2.8000000000000003e-05 1.9999999999999991e-05 3.5999999999999987e-05 0 0 0 2.8907593378169328e-11 -5.7815186756338645e-12 8.6722780134507976e-12
181 2.2144882072964876e-06 5.6861555757973018e-15 -2.8000000000000003e-05 2.7999999999999996e-05 -3.6000000000000001e-05 0 0 0 2.0871059650511631e-11 -4.1742119301023264e-12 6.2613178951534884e-12
182 2.340372731049692e-06 6.7120272362170318e-15 -2.8000000000000003e-05 2.7999999999999996e-05 -2.8000000000000003e-05 0 0 0 2.205749333558278e-11 -4.4114986671165568e-12 6.6172480006748331e-12
183 1.656723623660112e-06 2.3809420069315106e-15 -2.8000000000000003e-05 2.7999999999999996e-05 -2.0000000000000005e-05 0 0 0 1.5614252295357808e-11 -3.1228504590715622e-12 4.6842756886073422e-12
184 2.9625915248179081e-06 1.3614884161453351e-14 -2.8000000000000003e-05 2.7999999999999996e-05 -1.2000000000000004e-05 0 0 0 2.7921767309865972e-11 -5.5843534619731939e-12 8.3765301929597913e-12
185 1.7848440593791744e-06 2.9771413624999711e-15 -2.8000000000000003e-05 2.7999999999999996e-05 -4.0000000000000024e-06 0 0 0 1.6821758954246996e-11 -3.3643517908493998e-12 5.0465276862740979e-12
186 2.4962489625085322e-06 8.1444603705001541e-15 -2.8000000000000003e-05 2.7999999999999996e-05 3.9999999999999956e-06 0 0 0 2.3526592206443846e-11 -4.7053184412887698e-12 7.0579776619331531e-12
187 1.8040808174514906e-06 3.0744440114457608e-15 -2.8000000000000003e-05 2.7999999999999996e-05 1.1999999999999994e-05 0 0 0 1.7003061127763615e-11 -3.4006122255527223e-12 5.1009183383290841e-12
188 1.187738070212102e-06 8.7732529950753756e-16 -2.8000000000000003e-05 2.7999999999999996e-05 1.9999999999999991e-05 0 0 0 1.1194167587301773e-11 -2.2388335174603546e-12 3.3582502761905317e-12
189 1.50939409614961e-06 1.8005557100078107e-15 -2.8000000000000003e-05 2.7999999999999996e-05 2.7999999999999996e-05 0 0 0 1.4225704211506262e-11 -2.8451408423012521e-12 4.2677112634518782e-12
190 1.5127302442766291e-06 1.8125211877950268e-15 -2.8000000000000003e-05 2.7999999999999996e-05 3.5999999999999987e-05 0 0 0 1.4257146666847655e-11 -2.8514293333695303e-12 4.2771440000542954e-12
191 1.5482623993639554e-06 1.9432663152068445e-15 -2.8000000000000003e-05 3.5999999999999987e-05 -3.6000000000000001e-05 0 0 0 1.4592029339013324e-11 -2.9184058678026655e-12 4.3776088017039974e-12
192 1.4923248989677294e-06 1.7401583815328772e-15 -2.8000000000000003e-05 3.5999999999999987e-05 -2.8000000000000003e-05 0 0 0 1.4064830818098446e-11 -2.81296616361969e-12 4.2194492454295336e-12
193 3.3860138330358345e-06 2.0326603063065743e-14 -2.8000000000000003e-05 3.5999999999999987e-05 -2.0000000000000005e-05 0 0 0 3.1912428548456382e-11 -6.3824857096912773e-12 9.5737285645369135e-12
194 2.0249033424658977e-06 4.3472189488011829e-15 -2.8000000000000003e-05 3.5999999999999987e-05 -1.2000000000000004e-05 0 0 0 1.9084264394760841e-11 -3.8168528789521683e-12 5.7252793184282524e-12
195 2.7630851619506731e-06 1.1045399648226362e-14 -2.8000000000000003e-05 3.5999999999999987e-05 -4.0000000000000024e-06 0 0 0 2.6041464138081596e-11 -5.2082928276163196e-12 7.8124392414244774e-12
196 2.4374620470294924e-06 7.5824963300584699e-15 -2.8000000000000003e-05 3.5999999999999987e-05 3.9999999999999956e-06 0 0 0 2.2972538581055381e-11 -4.5945077162110766e-12 6.8917615743166129e-12
197 2.103186358090413e-06 4.871154346138172e-15 -2.8000000000000003e-05 3.5999999999999987e-05 1.1999999999999994e-05 0 0 0 1.9822064435121341e-11 -3.9644128870242679e-12 5.9466193305364018e-12
198 1.2681205710378644e-06 1.0677762702546587e-15 -2.8000000000000003e-05 3.5999999999999987e-05 1.9999999999999991e-05 0 0 0 1.1951754809515945e-11 -2.3903509619031887e-12 3.5855264428547831e-12
199 2.335567772001568e-06 6.6707711826548837e-15 -2.8000000000000003e-05 3.5999999999999987e-05 2.7999999999999996e-05 0 0 0 2.201220766344362e-11 -4.4024415326887234e-12 6.6036622990330851e-12
200 2.5638515376715527e-06 8.8242385948635573e-15 -2.8000000000000003e-05 3.5999999999999987e-05 3.5999999999999987e-05 0 0 0 2.4163731466931535e-11 -4.8327462933863064e-12 7.2491194400794603e-12
201 1.684184314716683e-06 2.5013097576552869e-15 -2.0000000000000005e-05 -3.6000000000000001e-05 -3.6000000000000001e-05 0 0 0 1.5873063211215277e-11 -3.1746126422430547e-12 4.7619189633645828e-12
202 1.3145704292225302e-06 1.1894609770309662e-15 -2.0000000000000005e-05 -3.6000000000000001e-05 -2.8000000000000003e-05 0 0 0 1.2389534409215646e-11 -2.4779068818431292e-12 3.7168603227646944e-12
203 1.7589035100661431e-06 2.849211371951403e-15 -2.0000000000000005e-05 -3.6000000000000001e-05 -2.0000000000000005e-05 0 0 0 1.6577275036791287e-11 -3.3154550073582575e-12 4.973182511037387e-12
204 2.6136527341548363e-06 9.3485073645869767e-15 -2.0000000000000005e-05 -3.6000000000000001e-05 -1.2000000000000004e-05 0 0 0 2.463309668596713e-11 -4.9266193371934269e-12 7.3899290057901391e-12
205 1.4000273666894032e-06 1.4368392973793128e-15 -2.0000000000000005e-05 -3.6000000000000001e-05 -4.0000000000000024e-06 0 0 0 1.3194947070048277e-11 -2.6389894140096558e-12 3.9584841210144829e-12
206 2.8989593707062352e-06 1.2756308344250633e-14 -2.0000000000000005e-05 -3.6000000000000001e-05 3.9999999999999956e-06 0 0 0 2.7322048386197996e-11 -5.4644096772395995e-12 8.1966145158593985e-12
207 1.4572934768796669e-06 1.6204651112680939e-15 -2.0000000000000005e-05 -3.6000000000000001e-05 1.1999999999999994e-05 0 0 0 1.3734667443268464e-11 -2.7469334886536935e-12 4.1204002329805394e-12
208 1.7714715892032789e-06 2.9107251398322408e-15 -2.0000000000000005e-05 -3.6000000000000001e-05 1.9999999999999991e-05 0 0 0 1.669572639205217e-11 -3.3391452784104342e-12 5.0087179176156501e-12
209 1.7362917114004394e-06 2.7407328072650821e-15 -2.0000000000000005e-05 -3.6000000000000001e-05 2.7999999999999996e-05 0 0 0 1.6364163855073409e-11 -3.2728327710146825e-12 4.9092491565220229e-12
210 1.4859180688349792e-06 1.7178419878010395e-15 -2.0000000000000005e-05 -3.6000000000000001e-05 3.5999999999999987e-05 0 0 0 1.4004447866664909e-11 -2.8008895733329822e-12 4.2013343599994725e-12
211 1.9659339848058923e-06 3.9783722165247242e-15 -2.0000000000000005e-05 -2.8000000000000003e-05 -3.6000000000000001e-05 0 0 0 1.8528491292326098e-11 -3.7056982584652194e-12 5.5585473876978303e-12
212 1.6233553929203828e-06 2.2399557894679573e-15 -2.0000000000000005e-05 -2.8000000000000003e-05 -2.8000000000000003e-05 0 0 0 1.5299764129692143e-11 -3.059952825938428e-12 4.5899292389076429e-12
213 1.8320822964972502e-06 3.2198345535678708e-15 -2.0000000000000005e-05 -2.8000000000000003e-05 -2.0000000000000005e-05 0 0 0 1.7266968850343033e-11 -3.4533937700686067e-12 5.1800906551029111e-12
214 1.5377539281021601e-06 1.9039658633089773e-15 -2.0000000000000005e-05 -2.8000000000000003e-05 -1.2000000000000004e-05 0 0 0 1.4492989330663781e-11 -2.8985978661327565e-12 4.3478967991991339e-12
215 2.0554941610387428e-06 4.5472346397849213e-15 -2.0000000000000005e-05 -2.8000000000000003e-05 -4.0000000000000024e-06 0 0 0 1.9372576067448091e-11 -3.8745152134896186e-12 5.8117728202344263e-12
216 1.1424444852468677e-06 7.8073552149762399e-16 -2.0000000000000005e-05 -2.8000000000000003e-05 3.9999999999999956e-06 0 0 0 1.0767285605957197e-11 -2.1534571211914395e-12 3.230185681787159e-12
217 1.6576878755067417e-06 2.3851017186275888e-15 -2.0000000000000005e-05 -2.8000000000000003e-05 1.1999999999999994e-05 0 0 0 1.5623340154910552e-11 -3.1246680309821111e-12 4.6870020464731653e-12
218 2.4007478269109507e-06 7.244997760879421e-15 -2.0000000000000005e-05 -2.8000000000000003e-05 1.9999999999999991e-05 0 0 0 2.2626515208435308e-11 -4.5253030416870625e-12 6.7879545625305917e-12
219 1.7056914224326723e-06 2.5983641690703494e-15 -2.0000000000000005e-05 -2.8000000000000003e-05 2.7999999999999996e-05 0 0 0 1.6075762926016822e-11 -3.2151525852033649e-12 4.8227288778050463e-12
220 1.8363080538672211e-06 3.2421659417106771e-15 -2.0000000000000005e-05 -2.8000000000000003e-05 3.5999999999999987e-05 0 0 0 1.7306795675271094e-11 -3.4613591350542196e-12 5.192038702581328e-12
221 2.0044134675096115e-06 4.2165820781360984e-15 -2.0000000000000005e-05 -2.0000000000000005e-05 -3.6000000000000001e-05 0 0 0 1.8891151872853918e-11 -3.7782303745707837e-12 5.6673455618561759e-12
222 2.3880936488965423e-06 7.1310368903766288e-15 -2.0000000000000005e-05 -2.0000000000000005e-05 -2.8000000000000003e-05 0 0 0 2.2507252390373458e-11 -4.5014504780746912e-12 6.7521757171120388e-12
223 2.3271575187746686e-06 6.5989671083624712e-15 -2.0000000000000005e-05 -2.0000000000000005e-05 -2.0000000000000005e-05 0 0 0 2.193294289418625e-11 -4.3865885788372494e-12 6.5798828682558754e-12
224 3.2245826993032806e-06 1.7555741643011492e-14 -2.0000000000000005e-05 -2.0000000000000005e-05 -1.2000000000000004e-05 0 0 0 3.03909759570718e-11 -6.0781951914143606e-12 9.1172927871215388e-12
225 2.9305750181797126e-06 1.3178232083325071e-14 -2.0000000000000005e-05 -2.0000000000000005e-05 -4.0000000000000024e-06 0 0 0 2.762001884372148e-11 -5.5240037687442964e-12 8.2860056531164426e-12
226 2.5862393685947581e-06 9.0574256456320402e-15 -2.0000000000000005e-05 -2.0000000000000005e-05 3.9999999999999956e-06 0 0 0 2.4374731802405994e-11 -4.8749463604811989e-12 7.3124195407217972e-12
227 1.0033444592339901e-06 5.2886982946266659e-16 -2.0000000000000005e-05 -2.0000000000000005e-05 1.1999999999999994e-05 0 0 0 9.4562987464485821e-12 -1.8912597492897168e-12 2.8368896239345742e-12
228 2.5639716851125029e-06 8.8254792197839327e-15 -2.0000000000000005e-05 -2.0000000000000005e-05 1.9999999999999991e-05 0 0 0 2.4164863829885044e-11 -4.8329727659770094e-12 7.2494591489655125e-12
229 2.1552567994837676e-06 5.2419840358780149e-15 -2.0000000000000005e-05 -2.0000000000000005e-05 2.7999999999999996e-05 0 0 0 2.0312816783572965e-11 -4.0625633567145933e-12 6.0938450350718883e-12
230 2.2715252419271434e-06 6.1369321805541437e-15 -2.0000000000000005e-05 -2.0000000000000005e-05 3.5999999999999987e-05 0 0 0 2.1408621037446275e-11 -4.281724207489255e-12 6.4225863112338816e-12
231 1.9147880723031372e-06 3.6758752388229503e-15 -2.0000000000000005e-05 -1.2000000000000004e-05 -3.6000000000000001e-05 0 0 0 1.8046452423386692e-11 -3.6092904846773392e-12 5.4139357270160074e-12
232 1.8224262876248222e-06 3.1691918916675662e-15 -2.0000000000000005e-05 -1.2000000000000004e-05 -2.8000000000000003e-05 0 0 0 1.7175963110733184e-11 -3.4351926221466372e-12 5.1527889332199543e-12
233 1.8994207557463245e-06 3.5880803552694091e-15 -2.0000000000000005e-05 -1.2000000000000004e-05 -2.0000000000000005e-05 0 0 0 1.7901618876985879e-11 -3.5803237753971767e-12 5.3704856630957635e-12
234 1.4661730275436644e-06 1.6502673202165386e-15 -2.0000000000000005e-05 -1.2000000000000004e-05 -1.2000000000000004e-05 0 0 0 1.3818355236668045e-11 -2.763671047333609e-12 4.1455065710004135e-12
235 1.3780327429378687e-06 1.370178765588007e-15 -2.0000000000000005e-05 -1.2000000000000004e-05 -4.0000000000000024e-06 0 0 0 1.2987652624859402e-11 -2.5975305249718807e-12 3.8962957874578205e-12
236 2.1216646523456674e-06 5.000677475866168e-15 -2.0000000000000005e-05 -1.2000000000000004e-05 3.9999999999999956e-06 0 0 0 1.9996218255570872e-11 -3.9992436511141754e-12 5.9988654766712616e-12
237 1.4744114555165626e-06 1.6782424875854178e-15 -2.0000000000000005e-05 -1.2000000000000004e-05 1.1999999999999994e-05 0 0 0 1.3896000591058402e-11 -2.7792001182116803e-12 4.16880017731752e-12
238 1.7244551409863754e-06 2.685062049816066e-15 -2.0000000000000005e-05 -1.2000000000000004e-05 1.9999999999999991e-05 0 0 0 1.6252606807103844e-11 -3.2505213614207686e-12 4.8757820421311528e-12
239 2.1974530840274483e-06 5.5559388491549465e-15 -2.0000000000000005e-05 -1.2000000000000004e-05 2.7999999999999996e-05 0 0 0 2.0710507396166597e-11 -4.1421014792333193e-12 6.2131522188499785e-12
240 1.5604740085308877e-06 1.9896113075358602e-15 -2.0000000000000005e-05 -1.2000000000000004e-05 3.5999999999999987e-05 0 0 0 1.4707121043955359e-11 -2.9414242087910718e-12 4.4121363131866077e-12
241 2.7102510527862338e-06 1.0423826825596788e-14 -2.0000000000000005e-05 -4.0000000000000024e-06 -3.6000000000000001e-05 0 0 0 2.5543514390451705e-11 -5.108702878090341e-12 7.6630543171355099e-12
242 1.6337838775815938e-06 2.2834023332824624e-15 -2.0000000000000005e-05 -4.0000000000000024e-06 -2.8000000000000003e-05 0 0 0 1.5398050282091341e-11 -3.0796100564182685e-12 4.6194150846274026e-12
243 2.5336600416959661e-06 8.5161567980299072e-15 -2.0000000000000005e-05 -4.0000000000000024e-06 -2.0000000000000005e-05 0 0 0 2.387918332105817e-11 -4.7758366642116335e-12 7.1637549963174498e-12
244 2.3467762133919261e-06 6.7672723510932472e-15 -2.0000000000000005e-05 -4.0000000000000024e-06 -1.2000000000000004e-05 0 0 0 2.2117844734834043e-11 -4.4235689469668084e-12 6.6353534204502138e-12
245 3.2054300505966676e-06 1.7244775088834639e-14 -2.0000000000000005e-05 -4.0000000000000024e-06 -4.0000000000000024e-06 0 0 0 3.0210466495651349e-11 -6.0420932991302689e-12 9.0631399486954042e-12
246 2.0698006428112399e-06 4.642844889431465e-15 -2.0000000000000005e-05 -4.0000000000000024e-06 3.9999999999999956e-06 0 0 0 1.950741148155367e-11 -3.9014822963107334e-12 5.8522234444660998e-12
247 1.9438396121111248e-06 3.8457398852955839e-15 -2.0000000000000005e-05 -4.0000000000000024e-06 1.1999999999999994e-05 0 0 0 1.8320256735495429e-11 -3.6640513470990852e-12 5.4960770206486285e-12
248 1.4139711318112199e-06 1.4801994918663094e-15 -2.0000000000000005e-05 -4.0000000000000024e-06 1.9999999999999991e-05 0 0 0 1.3326363960258522e-11 -2.6652727920517039e-12 3.9979091880775565e-12
249 2.1172008338437018e-06 4.9691807185317917e-15 -2.0000000000000005e-05 -4.0000000000000024e-06 2.7999999999999996e-05 0 0 0 1.9954147757332673e-11 -3.9908295514665343e-12 5.9862443271998022e-12
250 2.5161471505851364e-06 8.3407812394428185e-15 -2.0000000000000005e-05 -4.0000000000000024e-06 3.5999999999999987e-05 0 0 0 2.3714128210887467e-11 -4.7428256421774933e-12 7.1142384632662412e-12
251 2.3703231334095082e-06 6.9730260482075987e-15 -2.0000000000000005e-05 3.9999999999999956e-06 -3.6000000000000001e-05 0 0 0 2.2339769227659753e-11 -4.4679538455319508e-12 6.7019307682979249e-12
252 1.6038617643138886e-06 2.1602271717343593e-15 -2.0000000000000005e-05 3.9999999999999956e-06 -2.8000000000000003e-05 0 0 0 1.5116041008426231e-11 -3.0232082016852466e-12 4.5348123025278691e-12
253 2.5100066208972916e-06 8.2798643835526347e-15 -2.0000000000000005e-05 3.9999999999999956e-06 -2.0000000000000005e-05 0 0 0 2.3656255082018016e-11 -4.7312510164036033e-12 7.0968765246054041e-12
254 2.9443003034977465e-06 1.336426053255305e-14 -2.0000000000000005e-05 3.9999999999999956e-06 -1.2000000000000004e-05 0 0 0 2.7749376610292156e-11 -5.5498753220584305e-12 8.3248129830876474e-12
255 2.4261951871734124e-06 7.47783422248294e-15 -2.0000000000000005e-05 3.9999999999999956e-06 -4.0000000000000024e-06 0 0 0 2.2866350928596717e-11 -4.5732701857193431e-12 6.8599052785790147e-12
256 2.4647557712457919e-06 7.8400764733858242e-15 -2.0000000000000005e-05 3.9999999999999956e-06 3.9999999999999956e-06 0 0 0 2.3229775871516472e-11 -4.6459551743032944e-12 6.9689327614549408e-12
257 1.5564471486356738e-06 1.9742482279352643e-15 -2.0000000000000005e-05 3.9999999999999956e-06 1.1999999999999994e-05 0 0 0 1.4669168783563842e-11 -2.9338337567127682e-12 4.4007506350691526e-12
258 1.9004604733710004e-06 3.59397578336915e-15 -2.0000000000000005e-05 3.9999999999999956e-06 1.9999999999999991e-05 0 0 0 1.7911417984740347e-11 -3.5822835969480687e-12 5.3734253954221044e-12
259 2.942877074054905e-06 1.3344889665704679e-14 -2.0000000000000005e-05 3.9999999999999956e-06 2.7999999999999996e-05 0 0 0 2.7735962988806145e-11 -5.5471925977612286e-12 8.3207888966418437e-12
260 1.7984878291299351e-06 3.045938510527575e-15 -2.0000000000000005e-05 3.9999999999999956e-06 3.5999999999999987e-05 0 0 0 1.6950348454695778e-11 -3.3900696909391554e-12 5.0851045364087335e-12
261 2.3778674598506688e-06 7.0398199801473333e-15 -2.0000000000000005e-05 1.1999999999999994e-05 -3.6000000000000001e-05 0 0 0 2.2410872829231251e-11 -4.4821745658462508e-12 6.7232618487693746e-12
262 1.711560752703093e-06 2.6252796979642119e-15 -2.0000000000000005e-05 1.1999999999999994e-05 -2.8000000000000003e-05 0 0 0 1.6131080060593962e-11 -3.2262160121187926e-12 4.8393240181781877e-12
263 3.3888413992762594e-06 2.037756814628038e-14 -2.0000000000000005e-05 1.1999999999999994e-05 -2.0000000000000005e-05 0 0 0 3.1939077732441755e-11 -6.3878155464883517e-12 9.5817233197325248e-12
264 2.1435321909616335e-06 5.1568993168083555e-15 -2.0000000000000005e-05 1.1999999999999994e-05 -1.2000000000000004e-05 0 0 0 2.0202314951574906e-11 -4.0404629903149805e-12 6.0606944854724707e-12
265 1.8857323059761803e-06 3.5110640043844723e-15 -2.0000000000000005e-05 1.1999999999999994e-05 -4.0000000000000024e-06 0 0 0 1.7772608277275126e-11 -3.5545216554550253e-12 5.3317824831825368e-12
266 1.3853088668276235e-06 1.3919975287265466e-15 -2.0000000000000005e-05 1.1999999999999994e-05 3.9999999999999956e-06 0 0 0 1.3056228476935389e-11 -2.611245695387078e-12 3.916868543080616e-12
267 1.8609559633181084e-06 3.3744804104774946e-15 -2.0000000000000005e-05 1.1999999999999994e-05 1.1999999999999994e-05 0 0 0 1.753909674904286e-11 -3.5078193498085714e-12 5.2617290247128571e-12
268 1.6380139864967574e-06 2.3011844970796216e-15 -2.0000000000000005e-05 1.1999999999999994e-05 1.9999999999999991e-05 0 0 0 1.5437918119366632e-11 -3.087583623873326e-12 4.631375435809989e-12
269 1.9421532402987202e-06 3.8357394882698004e-15 -2.0000000000000005e-05 1.1999999999999994e-05 2.7999999999999996e-05 0 0 0 1.8304363055604217e-11 -3.660872611120843e-12 5.491308916681264e-12
270 1.3700471247892596e-06 1.3464962218156454e-15 -2.0000000000000005e-05 1.1999999999999994e-05 3.5999999999999987e-05 0 0 0 1.291238994692927e-11 -2.5824779893858536e-12 3.873716984078781e-12
271 1.2837925589176755e-06 1.1078556697067384e-15 -2.0000000000000005e-05 1.9999999999999991e-05 -3.6000000000000001e-05 0 0 0 1.2099459815487033e-11 -2.419891963097407e-12 3.6298379446461097e-12
272 1.9191878518754359e-06 3.7012726680077324e-15 -2.0000000000000005e-05 1.9999999999999991e-05 -2.8000000000000003e-05 0 0 0 1.8087919368931936e-11 -3.6175838737863881e-12 5.4263758106795804e-12
273 1.4763857321819669e-06 1.6849931545746121e-15 -2.0000000000000005e-05 1.9999999999999991e-05 -2.0000000000000005e-05 0 0 0 1.3914607710262966e-11 -2.7829215420525938e-12 4.1743823130788895e-12
274 2.1988623261056205e-06 5.5666348933499225e-15 -2.0000000000000005e-05 1.9999999999999991e-05 -1.2000000000000004e-05 0 0 0 2.0723789189846345e-11 -4.1447578379692685e-12 6.2171367569539027e-12
275 1.9270980611117569e-06 3.7472275439417111e-15 -2.0000000000000005e-05 1.9999999999999991e-05 -4.0000000000000024e-06 0 0 0 1.8162471334607492e-11 -3.6324942669214989e-12 5.4487414003822464e-12
276 1.5857063308275241e-06 2.08769428607726e-15 -2.0000000000000005e-05 1.9999999999999991e-05 3.9999999999999956e-06 0 0 0 1.4944930079035729e-11 -2.9889860158071459e-12 4.4834790237107183e-12
277 2.0305759429939164e-06 4.3838565258612942e-15 -2.0000000000000005e-05 1.9999999999999991e-05 1.1999999999999994e-05 0 0 0 1.9137727395197562e-11 -3.8275454790395119e-12 5.7413182185592682e-12
278 1.6357424943059064e-06 2.2916243638233828e-15 -2.0000000000000005e-05 1.9999999999999991e-05 1.9999999999999991e-05 0 0 0 1.5416509809828242e-11 -3.0833019619656477e-12 4.6249529429484716e-12
279 2.063598636780331e-06 4.6012339889048316e-15 -2.0000000000000005e-05 1.9999999999999991e-05 2.7999999999999996e-05 0 0 0 1.9448958951800998e-11 -3.8897917903601995e-12 5.8346876855402988e-12
280 2.3447609328804786e-06 6.7498532501407383e-15 -2.0000000000000005e-05 1.9999999999999991e-05 3.5999999999999987e-05 0 0 0 2.2098851163484987e-11 -4.4197702326969972e-12 6.6296553490454954e-12
281 1.8734553523293141e-06 3.442933742512648e-15 -2.0000000000000005e-05 2.7999999999999996e-05 -3.6000000000000001e-05 0 0 0 1.7656900715118753e-11 -3.5313801430237509e-12 5.2970702145356247e-12
282 1.8056035454630799e-06 3.0822355048006448e-15 -2.0000000000000005e-05 2.7999999999999996e-05 -2.8000000000000003e-05 0 0 0 1.7017412501167487e-11 -3.4034825002334978e-12 5.1052237503502452e-12
283 1.8419561756350634e-06 3.2721748451166986e-15 -2.0000000000000005e-05 2.7999999999999996e-05 -2.0000000000000005e-05 0 0 0 1.7360027968828399e-11 -3.47200559376568e-12 5.2080083906485184e-12
284 1.5659017634618765e-06 2.0104448396075724e-15 -2.0000000000000005e-05 2.7999999999999996e-05 -1.2000000000000004e-05 0 0 0 1.4758276429005401e-11 -2.9516552858010797e-12 4.42748292870162e-12
285 1.831768538391642e-06 3.2181805729762665e-15 -2.0000000000000005e-05 2.7999999999999996e-05 -4.0000000000000024e-06 0 0 0 1.7264011749864289e-11 -3.4528023499728583e-12 5.1792035249592856e-12
286 2.5635915658932324e-06 8.8215545622358999e-15 -2.0000000000000005e-05 2.7999999999999996e-05 3.9999999999999956e-06 0 0 0 2.4161281290644797e-11 -4.8322562581289605e-12 7.2483843871934391e-12
287 3.0541668884387991e-06 1.4916842893826572e-14 -2.0000000000000005e-05 2.7999999999999996e-05 1.1999999999999994e-05 0 0 0 2.8784844778669586e-11 -5.7569689557339163e-12 8.6354534336008757e-12
288 2.8598067702730236e-06 1.2246407096731675e-14 -2.0000000000000005e-05 2.7999999999999996e-05 1.9999999999999991e-05 0 0 0 2.6953043820528255e-11 -5.3906087641056503e-12 8.0859131461584755e-12
289 1.2228857796142449e-06 9.5753863662037219e-16 -2.0000000000000005e-05 2.7999999999999996e-05 2.7999999999999996e-05 0 0 0 1.1525426944246617e-11 -2.305085388849323e-12 3.4576280832739845e-12
290 2.5563900107555989e-06 8.747419567894317e-15 -2.0000000000000005e-05 2.7999999999999996e-05 3.5999999999999987e-05 0 0 0 2.4093408232500366e-11 -4.8186816465000728e-12 7.2280224697501096e-12
291 1.3584934338857322e-06 1.3127174345354696e-15 -2.0000000000000005e-05 3.5999999999999987e-05 -3.6000000000000001e-05 0 0 0 1.2803498975536163e-11 -2.5606997951072328e-12 3.841049692660848e-12
292 2.2555256023484577e-06 6.0081657557282826e-15 -2.0000000000000005e-05 3.5999999999999987e-05 -2.8000000000000003e-05 0 0 0 2.1257827986964825e-11 -4.2515655973929655e-12 6.3773483960894463e-12
293 1.2589280621598854e-06 1.0447235033321685e-15 -2.0000000000000005e-05 3.5999999999999987e-05 -2.0000000000000005e-05 0 0 0 1.1865117454438591e-11 -2.3730234908877185e-12 3.5595352363315768e-12
294 1.6428249561697959e-06 2.3215203615466926e-15 -2.0000000000000005e-05 3.5999999999999987e-05 -1.2000000000000004e-05 0 0 0 1.5483260440311015e-11 -3.0966520880622022e-12 4.644978132093304e-12
295 1.8891687775078631e-06 3.5302942091248776e-15 -2.0000000000000005e-05 3.5999999999999987e-05 -4.0000000000000024e-06 0 0 0 1.7804996258429742e-11 -3.5609992516859486e-12 5.3414988775289217e-12
296 2.5890220259766077e-06 9.0866930524694577e-15 -2.0000000000000005e-05 3.5999999999999987e-05 3.9999999999999956e-06 0 0 0 2.440095773037082e-11 -4.8801915460741646e-12 7.3202873191112453e-12
297 1.6184139569137335e-06 2.219562953727339e-15 -2.0000000000000005e-05 3.5999999999999987e-05 1.1999999999999994e-05 0 0 0 1.5253192192522119e-11 -3.0506384385044234e-12 4.5759576577566346e-12
298 2.0413326466638505e-06 4.4538949136505313e-15 -2.0000000000000005e-05 3.5999999999999987e-05 1.9999999999999991e-05 0 0 0 1.9239106938876488e-11 -3.8478213877752973e-12 5.7717320816629452e-12
299 1.5137764697186089e-06 1.8162844845268629e-15 -2.0000000000000005e-05 3.5999999999999987e-05 2.7999999999999996e-05 0 0 0 1.4267007109335222e-11 -2.8534014218670441e-12 4.2801021328005663e-12
300 1.7954482787233905e-06 3.0305211494675757e-15 -2.0000000000000005e-05 3.5999999999999987e-05 3.5999999999999987e-05 0 0 0 1.6921701367013528e-11 -3.3843402734027052e-12 5.0765104101040576e-12
301 1.0070906403638252e-06 5.3481588930889871e-16 -1.2000000000000004e-05 -3.6000000000000001e-05 -3.6000000000000001e-05 0 0 0 9.4916056717981015e-12 -1.8983211343596207e-12 2.84748170153943e-12
302 2.0635903976861118e-06 4.601178876663055e-15 -1.2000000000000004e-05 -3.6000000000000001e-05 -2.8000000000000003e-05 0 0 0 1.9448881300167386e-11 -3.8897762600334777e-12 5.8346643900502154e-12
303 2.0584918472338612e-06 4.5671584204064781e-15 -1.2000000000000004e-05 -3.6000000000000001e-05 -2.0000000000000005e-05 0 0 0 1.9400828594233145e-11 -3.8801657188466292e-12 5.8202485782699422e-12
304 2.1867440692171744e-06 5.4751055285025014e-15 -1.2000000000000004e-05 -3.6000000000000001e-05 -1.2000000000000004e-05 0 0 0 2.0609577309401175e-11 -4.1219154618802346e-12 6.1828731928203519e-12
305 1.3746564077134079e-06 1.3601321449053995e-15 -1.2000000000000004e-05 -3.6000000000000001e-05 -4.0000000000000024e-06 0 0 0 1.2955831415047734e-11 -2.5911662830095463e-12 3.8867494245143204e-12
306 2.2561856751947201e-06 6.013442114951727e-15 -1.2000000000000004e-05 -3.6000000000000001e-05 3.9999999999999956e-06 0 0 0 2.1264049026978781e-11 -4.2528098053957555e-12 6.3792147080936349e-12
307 1.7193480167903564e-06 2.6612764962576872e-15 -1.2000000000000004e-05 -3.6000000000000001e-05 1.1999999999999994e-05 0 0 0 1.6204473295538291e-11 -3.2408946591076578e-12 4.8613419886614871e-12
308 2.9110100608091916e-06 1.2916050713521617e-14 -1.2000000000000004e-05 -3.6000000000000001e-05 1.9999999999999991e-05 0 0 0 2.7435623464692401e-11 -5.4871246929384799e-12 8.2306870394077191e-12
309 1.3494721458272867e-06 1.2867387998730907e-15 -1.2000000000000004e-05 -3.6000000000000001e-05 2.7999999999999996e-05 0 0 0 1.2718475338665174e-11 -2.5436950677330347e-12 3.8155426015995516e-12
310 1.8943781737407656e-06 3.5595792481468548e-15 -1.2000000000000004e-05 -3.6000000000000001e-05 3.5999999999999987e-05 0 0 0 1.7854093661234516e-11 -3.5708187322469027e-12 5.3562280983703542e-12
311 9.7387225863275845e-07 4.8362039439215732e-16 -1.2000000000000004e-05 -2.8000000000000003e-05 -3.6000000000000001e-05 0 0 0 9.1785297997667177e-12 -1.8357059599533441e-12 2.7535589399300151e-12
312 1.673182736746106e-06 2.4526114275496079e-15 -1.2000000000000004e-05 -2.8000000000000003e-05 -2.8000000000000003e-05 0 0 0 1.5769375781624495e-11 -3.1538751563248995e-12 4.7308127344873481e-12
313 1.685163406884392e-06 2.5056746661191809e-15 -1.2000000000000004e-05 -2.8000000000000003e-05 -2.0000000000000005e-05 0 0 0 1.5882290937499059e-11 -3.1764581874998127e-12 4.7646872812497175e-12
314 1.0876114413131649e-06 6.7362768093419244e-16 -1.2000000000000004e-05 -2.8000000000000003e-05 -1.2000000000000004e-05 0 0 0 1.0250496341968936e-11 -2.050099268393787e-12 3.0751489025906805e-12
315 2.0474567629923295e-06 4.494101122867832e-15 -1.2000000000000004e-05 -2.8000000000000003e-05 -4.0000000000000024e-06 0 0 0 1.9296825375478321e-11 -3.8593650750956641e-12 5.7890476126434965e-12
316 1.1859735660483664e-06 8.7342104095121273e-16 -1.2000000000000004e-05 -2.8000000000000003e-05 3.9999999999999956e-06 0 0 0 1.1177537527347711e-11 -2.2355075054695422e-12 3.3532612582043139e-12
317 3.2478648095325834e-06 1.7938761397842768e-14 -1.2000000000000004e-05 -2.8000000000000003e-05 1.1999999999999994e-05 0 0 0 3.061040467644113e-11 -6.1220809352882259e-12 9.1831214029323389e-12
318 2.1369444366456615e-06 5.1094989303105099e-15 -1.2000000000000004e-05 -2.8000000000000003e-05 1.9999999999999991e-05 0 0 0 2.0140226829886772e-11 -4.0280453659773535e-12 6.0420680489660307e-12
319 3.9755829581010255e-06 3.2900392804925423e-14 -1.2000000000000004e-05 -2.8000000000000003e-05 2.7999999999999996e-05 0 0 0 3.7468986644720878e-11 -7.4937973289441752e-12 1.1240695993416264e-11
320 1.4862520545564953e-06 1.719000592048909e-15 -1.2000000000000004e-05 -2.8000000000000003e-05 3.5999999999999987e-05 0 0 0 1.4007595607932268e-11 -2.8015191215864533e-12 4.2022786823796799e-12
321 1.6484925130146044e-06 2.3456302804418534e-15 -1.2000000000000004e-05 -2.0000000000000005e-05 -3.6000000000000001e-05 0 0 0 1.5536675905153373e-11 -3.107335181030675e-12 4.6610027715460108e-12
322 2.9486327035754951e-06 1.3423342034429333e-14 -1.2000000000000004e-05 -2.0000000000000005e-05 -2.8000000000000003e-05 0 0 0 2.7790208519062157e-11 -5.558041703812432e-12 8.3370625557186464e-12
323 2.3462368620343152e-06 6.7626075278506657e-15 -1.2000000000000004e-05 -2.0000000000000005e-05 -2.0000000000000005e-05 0 0 0 2.2112761468045722e-11 -4.4225522936091453e-12 6.6338284404137156e-12
324 2.2251111330776883e-06 5.7683784053435027e-15 -1.2000000000000004e-05 -2.0000000000000005e-05 -1.2000000000000004e-05 0 0 0 2.097117836729318e-11 -4.1942356734586358e-12 6.2913535101879533e-12
325 1.6921932219902463e-06 2.5371636219304398e-15 -1.2000000000000004e-05 -2.0000000000000005e-05 -4.0000000000000024e-06 0 0 0 1.5948545383976999e-11 -3.1897090767953996e-12 4.7845636151930998e-12
326 3.000797836252453e-06 1.4148449085349351e-14 -1.2000000000000004e-05 -2.0000000000000005e-05 3.9999999999999956e-06 0 0 0 2.8281853311836562e-11 -5.6563706623673115e-12 8.4845559935509696e-12
327 1.0616626387090406e-06 6.2655359330887306e-16 -1.2000000000000004e-05 -2.0000000000000005e-05 1.1999999999999994e-05 0 0 0 1.000593463907723e-11 -2.0011869278154459e-12 3.001780391723169e-12
328 1.5078209314182071e-06 1.7949316926720311e-15 -1.2000000000000004e-05 -2.0000000000000005e-05 1.9999999999999991e-05 0 0 0 1.4210877483217077e-11 -2.8421754966434147e-12 4.2632632449651221e-12
329 2.4632992278562911e-06 7.8261854444161146e-15 -1.2000000000000004e-05 -2.0000000000000005e-05 2.7999999999999996e-05 0 0 0 2.32160482734802e-11 -4.6432096546960394e-12 6.9648144820440599e-12
330 1.9477208837614386e-06 3.8688223213992286e-15 -1.2000000000000004e-05 -2.0000000000000005e-05 3.5999999999999987e-05 0 0 0 1.8356836859005066e-11 -3.6713673718010127e-12 5.5070510577015187e-12
331 3.4156062950069745e-06 2.0864214463729076e-14 -1.2000000000000004e-05 -1.2000000000000004e-05 -3.6000000000000001e-05 0 0 0 3.219133093184689e-11 -6.4382661863693778e-12 9.6573992795540663e-12
332 1.7676952736563742e-06 2.8921500721401763e-15 -1.2000000000000004e-05 -1.2000000000000004e-05 -2.8000000000000003e-05 0 0 0 1.6660135456512793e-11 -3.3320270913025584e-12 4.998040636953837e-12
333 1.9901336036037895e-06 4.1271031258039461e-15 -1.2000000000000004e-05 -1.2000000000000004e-05 -2.0000000000000005e-05 0 0 0 1.8756567326231539e-11 -3.7513134652463076e-12 5.6269701978694613e-12
334 1.8435243134679379e-06 3.2805391985866129e-15 -1.2000000000000004e-05 -1.2000000000000004e-05 -1.2000000000000004e-05 0 0 0 1.737480731971512e-11 -3.4749614639430247e-12 5.2124421959145356e-12
335 3.0293204169203651e-06 1.4555738946800455e-14 -1.2000000000000004e-05 -1.2000000000000004e-05 -4.0000000000000024e-06 0 0 0 2.8550672301499767e-11 -5.7101344602999534e-12 8.5652016904499285e-12
336 2.1289398088703319e-06 5.0522958164431647e-15 -1.2000000000000004e-05 -1.2000000000000004e-05 3.9999999999999956e-06 0 0 0 2.0064784990445679e-11 -4.0129569980891362e-12 6.0194354971337031e-12
337 1.834665988192079e-06 3.2334760760077167e-15 -1.2000000000000004e-05 -1.2000000000000004e-05 1.1999999999999994e-05 0 0 0 1.7291319570885881e-11 -3.458263914177177e-12 5.1873958712657637e-12
338 2.0608522020483839e-06 4.5828871395349471e-15 -1.2000000000000004e-05 -1.2000000000000004e-05 1.9999999999999991e-05 0 0 0 1.9423074414268652e-11 -3.8846148828537313e-12 5.8269223242805949e-12
339 2.549368556614414e-06 8.6755396168409409e-15 -1.2000000000000004e-05 -1.2000000000000004e-05 2.7999999999999996e-05 0 0 0 2.4027232586257973e-11 -4.8054465172515947e-12 7.2081697758773909e-12
340 1.6060895203143967e-06 2.1692413150877208e-15 -1.2000000000000004e-05 -1.2000000000000004e-05 3.5999999999999987e-05 0 0 0 1.5137037114081788e-11 -3.0274074228163583e-12 4.5411111342245361e-12
341 1.5890835507480555e-06 2.1010617606536682e-15 -1.2000000000000004e-05 -4.0000000000000024e-06 -3.6000000000000001e-05 0 0 0 1.4976759626911423e-11 -2.9953519253822843e-12 4.4930278880734275e-12
342 3.1941949282148157e-06 1.7064079650439797e-14 -1.2000000000000004e-05 -4.0000000000000024e-06 -2.8000000000000003e-05 0 0 0 3.0104577961840327e-11 -6.020915592368065e-12 9.0313733885520995e-12
343 3.2806350627114623e-06 1.8487253185936829e-14 -1.2000000000000004e-05 -4.0000000000000024e-06 -2.0000000000000005e-05 0 0 0 3.0919257036370258e-11 -6.1838514072740512e-12 9.2757771109110788e-12
344 2.0236876824110263e-06 4.339394029608668e-15 -1.2000000000000004e-05 -4.0000000000000024e-06 -1.2000000000000004e-05 0 0 0 1.9072807068667904e-11 -3.814561413733581e-12 5.7218421206003711e-12
345 3.0334650386596983e-06 1.4615564848651285e-14 -1.2000000000000004e-05 -4.0000000000000024e-06 -4.0000000000000024e-06 0 0 0 2.8589734441124357e-11 -5.717946888224872e-12 8.5769203323373065e-12
346 2.8060311440826054e-06 1.1568474221018486e-14 -1.2000000000000004e-05 -4.0000000000000024e-06 3.9999999999999956e-06 0 0 0 2.6446220483982228e-11 -5.2892440967964451e-12 7.9338661451946665e-12
347 1.4222425301403038e-06 1.5063282002660746e-15 -1.2000000000000004e-05 -4.0000000000000024e-06 1.1999999999999994e-05 0 0 0 1.3404320052935214e-11 -2.6808640105870429e-12 4.0212960158805643e-12
348 2.1497797120010446e-06 5.202121632829767e-15 -1.2000000000000004e-05 -4.0000000000000024e-06 1.9999999999999991e-05 0 0 0 2.0261196450176591e-11 -4.052239290035318e-12 6.0783589350529765e-12
349 1.721075231370374e-06 2.6693049140536699e-15 -1.2000000000000004e-05 -4.0000000000000024e-06 2.7999999999999996e-05 0 0 0 1.622075190944556e-11 -3.2441503818891122e-12 4.8662255728336679e-12
350 1.3622949996253263e-06 1.3237687052777832e-15 -1.2000000000000004e-05 -4.0000000000000024e-06 3.5999999999999987e-05 0 0 0 1.2839327888535105e-11 -2.5678655777070212e-12 3.8517983665605316e-12
351 2.2334900745145154e-06 5.8337888061941294e-15 -1.2000000000000004e-05 3.9999999999999956e-06 -3.6000000000000001e-05 0 0 0 2.1050148029881563e-11 -4.2100296059763122e-12 6.3150444089644692e-12
352 1.9920778893092438e-06 4.1392110208094686e-15 -1.2000000000000004e-05 3.9999999999999956e-06 -2.8000000000000003e-05 0 0 0 1.8774891787297743e-11 -3.7549783574595484e-12 5.6324675361893242e-12
353 2.2193954116686638e-06 5.7240401829055654e-15 -1.2000000000000004e-05 3.9999999999999956e-06 -2.0000000000000005e-05 0 0 0 2.0917308962127508e-11 -4.1834617924255009e-12 6.2751926886382522e-12
354 1.9998768495792311e-06 4.188016475516541e-15 -1.2000000000000004e-05 3.9999999999999956e-06 -1.2000000000000004e-05 0 0 0 1.8848395256167237e-11 -3.7696790512334475e-12 5.65451857685017e-12
355 2.0002391120931519e-06 4.1902927700032919e-15 -1.2000000000000004e-05 3.9999999999999956e-06 -4.0000000000000024e-06 0 0 0 1.8851809499924451e-11 -3.7703618999848902e-12 5.6555428499773353e-12
356 1.44355451312024e-06 1.575063940314666e-15 -1.2000000000000004e-05 3.9999999999999956e-06 3.9999999999999956e-06 0 0 0 1.3605180760424811e-11 -2.7210361520849621e-12 4.0815542281274432e-12
357 1.7296642030344639e-06 2.7094679271036745e-15 -1.2000000000000004e-05 3.9999999999999956e-06 1.1999999999999994e-05 0 0 0 1.630170106029095e-11 -3.2603402120581898e-12 4.890510318087284e-12
358 1.7903889299708281e-06 3.0049743834665408e-15 -1.2000000000000004e-05 3.9999999999999956e-06 1.9999999999999991e-05 0 0 0 1.6874018128394534e-11 -3.3748036256789067e-12 5.0622054385183598e-12
359 1.5394116200818478e-06 1.9101299038564062e-15 -1.2000000000000004e-05 3.9999999999999956e-06 2.7999999999999996e-05 0 0 0 1.4508612709499685e-11 -2.901722541899937e-12 4.3525838128499053e-12
360 1.5701724305396938e-06 2.0269389360199845e-15 -1.2000000000000004e-05 3.9999999999999956e-06 3.5999999999999987e-05 0 0 0 1.4798526517958197e-11 -2.9597053035916395e-12 4.4395579553874586e-12
361 3.1300082638345359e-06 1.6055915535727018e-14 -1.2000000000000004e-05 1.1999999999999994e-05 -3.6000000000000001e-05 0 0 0 2.9499632902013764e-11 -5.8999265804027527e-12 8.8498898706041287e-12
362 1.6911710245830779e-06 2.5325685513644433e-15 -1.2000000000000004e-05 1.1999999999999994e-05 -2.8000000000000003e-05 0 0 0 1.5938911400382361e-11 -3.1877822800764721e-12 4.7816734201147086e-12
363 1.6085597011540071e-06 2.1792656576691996e-15 -1.2000000000000004e-05 1.1999999999999994e-05 -2.0000000000000005e-05 0 0 0 1.5160318020018067e-11 -3.0320636040036127e-12 4.548095406005419e-12
364 2.055260103059484e-06 4.5456814434062011e-15 -1.2000000000000004e-05 1.1999999999999994e-05 -1.2000000000000004e-05 0 0 0 1.9370370122963626e-11 -3.8740740245927264e-12 5.8111110368890876e-12
365 3.0172984460151415e-06 1.4383130788142618e-14 -1.2000000000000004e-05 1.1999999999999994e-05 -4.0000000000000024e-06 0 0 0 2.8437367895067202e-11 -5.6874735790134406e-12 8.5312103685201597e-12
366 2.1970480615081097e-06 5.5528672946824633e-15 -1.2000000000000004e-05 1.1999999999999994e-05 3.9999999999999956e-06 0 0 0 2.0706690148852722e-11 -4.1413380297705443e-12 6.2120070446558161e-12
367 1.9822702039148075e-06 4.0783752384047354e-15 -1.2000000000000004e-05 1.1999999999999994e-05 1.1999999999999994e-05 0 0 0 1.86824565301461e-11 -3.7364913060292212e-12 5.6047369590438294e-12
368 1.810615105346783e-06 3.1079715879714718e-15 -1.2000000000000004e-05 1.1999999999999994e-05 1.9999999999999991e-05 0 0 0 1.7064645340308492e-11 -3.4129290680616986e-12 5.1193936020925469e-12
369 1.1509614700955877e-06 7.9832729515982301e-16 -1.2000000000000004e-05 1.1999999999999994e-05 2.7999999999999996e-05 0 0 0 1.0847556297051621e-11 -2.1695112594103245e-12 3.254266889115486e-12
370 1.0027138041734483e-06 5.2787318818615768e-16 -1.2000000000000004e-05 1.1999999999999994e-05 3.5999999999999987e-05 0 0 0 9.4503549625331386e-12 -1.8900709925066278e-12 2.8351064887599411e-12
371 1.6541596000993779e-06 2.3699045324970367e-15 -1.2000000000000004e-05 1.9999999999999991e-05 -3.6000000000000001e-05 0 0 0 1.5590086942611708e-11 -3.1180173885223413e-12 4.6770260827835119e-12
372 1.6523457844509981e-06 2.3621171493634211e-15 -1.2000000000000004e-05 1.9999999999999991e-05 -2.8000000000000003e-05 0 0 0 1.5572992132863956e-11 -3.1145984265727914e-12 4.6718976398591867e-12
373 1.7307124309830658e-06 2.7143969674787803e-15 -1.2000000000000004e-05 1.9999999999999991e-05 -2.0000000000000005e-05 0 0 0 1.6311580375958794e-11 -3.2623160751917588e-12 4.893474112787638e-12
374 1.774823917308878e-06 2.9272811763914141e-15 -1.2000000000000004e-05 1.9999999999999991e-05 -1.2000000000000004e-05 0 0 0 1.6727321340099091e-11 -3.3454642680198184e-12 5.018196402029726e-12
375 2.0671503212704661e-06 4.625032619914484e-15 -1.2000000000000004e-05 1.9999999999999991e-05 -4.0000000000000024e-06 0 0 0 1.9482432789507232e-11 -3.8964865579014466e-12 5.8447298368521687e-12
376 2.272870477080963e-06 6.1478418198123645e-15 -1.2000000000000004e-05 1.9999999999999991e-05 3.9999999999999956e-06 0 0 0 2.1421299580076046e-11 -4.2842599160152091e-12 6.4263898740228129e-12
377 1.8973515011176857e-06 3.5763664162459064e-15 -1.2000000000000004e-05 1.9999999999999991e-05 1.1999999999999994e-05 0 0 0 1.7882116611566665e-11 -3.5764233223133332e-12 5.3646349834699983e-12
378 2.0930037098268896e-06 4.8007447613176887e-15 -1.2000000000000004e-05 1.9999999999999991e-05 1.9999999999999991e-05 0 0 0 1.9726095236185016e-11 -3.9452190472370038e-12 5.9178285708555045e-12
379 1.5046531371694429e-06 1.7836424802191715e-15 -1.2000000000000004e-05 1.9999999999999991e-05 2.7999999999999996e-05 0 0 0 1.4181021725797072e-11 -2.836204345159415e-12 4.2543065177391212e-12
380 2.6820348479213298e-06 1.0101639634533794e-14 -1.2000000000000004e-05 1.9999999999999991e-05 3.5999999999999987e-05 0 0 0 2.5277582924704404e-11 -5.055516584940882e-12 7.583274877411321e-12
381 2.2143528357598428e-06 5.6851128564521234e-15 -1.2000000000000004e-05 2.7999999999999996e-05 -3.6000000000000001e-05 0 0 0 2.0869783803836544e-11 -4.1739567607673089e-12 6.260935141150963e-12
382 1.4726513785337097e-06 1.6722394592696578e-15 -1.2000000000000004e-05 2.7999999999999996e-05 -2.8000000000000003e-05 0 0 0 1.3879412256301153e-11 -2.7758824512602301e-12 4.1638236768903456e-12
383 3.0124480592169066e-06 1.4313878446717551e-14 -1.2000000000000004e-05 2.7999999999999996e-05 -2.0000000000000005e-05 0 0 0 2.8391654076469991e-11 -5.6783308152939978e-12 8.5174962229409971e-12
384 1.9704368963248734e-06 4.005771897702957e-15 -1.2000000000000004e-05 2.7999999999999996e-05 -1.2000000000000004e-05 0 0 0 1.8570930233569488e-11 -3.7141860467138979e-12 5.5712790700708452e-12
385 1.5590685316489866e-06 1.9842401802282439e-15 -1.2000000000000004e-05 2.7999999999999996e-05 -4.0000000000000024e-06 0 0 0 1.4693874736414446e-11 -2.9387749472828894e-12 4.408162420924334e-12
386 1.119819256765649e-06 7.3526250035510562e-16 -1.2000000000000004e-05 2.7999999999999996e-05 3.9999999999999956e-06 0 0 0 1.0554047851210035e-11 -2.1108095702420072e-12 3.1662143553630103e-12
387 2.0109819485512046e-06 4.258171402160358e-15 -1.2000000000000004e-05 2.7999999999999996e-05 1.1999999999999994e-05 0 0 0 1.8953058348210456e-11 -3.7906116696420918e-12 5.6859175044631368e-12
388 3.0961785266080624e-06 1.5540915717999895e-14 -1.2000000000000004e-05 2.7999999999999996e-05 1.9999999999999991e-05 0 0 0 2.9180795140183077e-11 -5.8361590280366159e-12 8.7542385420549218e-12
389 2.5432927325227233e-06 8.6136589666684793e-15 -1.2000000000000004e-05 2.7999999999999996e-05 2.7999999999999996e-05 0 0 0 2.3969969293265096e-11 -4.7939938586530197e-12 7.1909907879795284e-12
390 2.4527792630556017e-06 7.7263436329723137e-15 -1.2000000000000004e-05 2.7999999999999996e-05 3.5999999999999987e-05 0 0 0 2.3116899941078594e-11 -4.6233799882157197e-12 6.9350699823235775e-12
391 1.7597728451558521e-06 2.8534381140513258e-15 -1.2000000000000004e-05 3.5999999999999987e-05 -3.6000000000000001e-05 0 0 0 1.65854683269853e-11 -3.3170936653970596e-12 4.9756404980955894e-12
392 2.8131168114809054e-06 1.1656332322322154e-14 -1.2000000000000004e-05 3.5999999999999987e-05 -2.8000000000000003e-05 0 0 0 2.6513001325915066e-11 -5.3026002651830122e-12 7.9539003977745191e-12
393 2.0243963834423178e-06 4.3439546297940117e-15 -1.2000000000000004e-05 3.5999999999999987e-05 -2.0000000000000005e-05 0 0 0 1.9079486418528394e-11 -3.8158972837056781e-12 5.7238459255585175e-12
394 1.7521287429370473e-06 2.816415103369801e-15 -1.2000000000000004e-05 3.5999999999999987e-05 -1.2000000000000004e-05 0 0 0 1.6513424360863641e-11 -3.3026848721727288e-12 4.954027308259092e-12
395 1.147151277361052e-06 7.9042506105284691e-16 -1.2000000000000004e-05 3.5999999999999987e-05 -4.0000000000000024e-06 0 0 0 1.0811646076540884e-11 -2.1623292153081769e-12 3.2434938229622649e-12
396 2.874652764542367e-06 1.2438121671021064e-14 -1.2000000000000004e-05 3.5999999999999987e-05 3.9999999999999956e-06 0 0 0 2.7092964020123668e-11 -5.4185928040247339e-12 8.1278892060371001e-12
397 3.6946176816053768e-06 2.6406274606611194e-14 -1.2000000000000004e-05 3.5999999999999987e-05 1.1999999999999994e-05 0 0 0 3.4820951299063217e-11 -6.9641902598126447e-12 1.0446285389718965e-11
398 2.3804599586242181e-06 7.0628708401441519e-15 -1.2000000000000004e-05 3.5999999999999987e-05 1.9999999999999991e-05 0 0 0 2.2435306554535521e-11 -4.4870613109071046e-12 6.7305919663606557e-12
399 1.6992794322754885e-06 2.569171080574098e-15 -1.2000000000000004e-05 3.5999999999999987e-05 2.7999999999999996e-05 0 0 0 1.6015331342498727e-11 -3.203066268499746e-12 4.8045994027496174e-12
400 1.8436189028633718e-06 3.2810441880878041e-15 -1.2000000000000004e-05 3.5999999999999987e-05 3.5999999999999987e-05 0 0 0 1.7375698803764529e-11 -3.4751397607529064e-12 5.212709641129358e-12
401 1.669515004361605e-06 2.4365178752503241e-15 -4.0000000000000024e-06 -3.6000000000000001e-05 -3.6000000000000001e-05 0 0 0 1.573480821828105e-11 -3.14696164365621e-12 4.720442465484314e-12
402 1.4479142867499385e-06 1.5893779456885675e-15 -4.0000000000000024e-06 -3.6000000000000001e-05 -2.8000000000000003e-05 0 0 0 1.3646270658843936e-11 -2.7292541317687873e-12 4.0938811976531806e-12
403 1.6545543567561722e-06 2.3716016339169072e-15 -4.0000000000000024e-06 -3.6000000000000001e-05 -2.0000000000000005e-05 0 0 0 1.559380743645053e-11 -3.1187614872901061e-12 4.6781422309351588e-12
404 1.3217084468832247e-06 1.2089424264236317e-15 -4.0000000000000024e-06 -3.6000000000000001e-05 -1.2000000000000004e-05 0 0 0 1.2456808640747742e-11 -2.4913617281495481e-12 3.7370425922243224e-12
405 2.648769701057489e-06 9.7304118382709194e-15 -4.0000000000000024e-06 -3.6000000000000001e-05 -4.0000000000000024e-06 0 0 0 2.4964066301680319e-11 -4.9928132603360643e-12 7.4892198905040944e-12
406 1.3742722465567222e-06 1.3589921569166944e-15 -4.0000000000000024e-06 -3.6000000000000001e-05 3.9999999999999956e-06 0 0 0 1.295221078144482e-11 -2.5904421562889638e-12 3.8856632344334453e-12
407 3.3014869896779861e-06 1.8842017065909904e-14 -4.0000000000000024e-06 -3.6000000000000001e-05 1.1999999999999994e-05 0 0 0 3.1115781818083925e-11 -6.2231563636167849e-12 9.3347345454251786e-12
408 2.0561568314856346e-06 4.5516340046221422e-15 -4.0000000000000024e-06 -3.6000000000000001e-05 1.9999999999999991e-05 0 0 0 1.9378821589271206e-11 -3.8757643178542408e-12 5.8136464767813621e-12
409 2.3060319798664424e-06 6.4208806822197223e-15 -4.0000000000000024e-06 -3.6000000000000001e-05 2.7999999999999996e-05 0 0 0 2.1733839380674623e-11 -4.3467678761349242e-12 6.5201518142023875e-12
410 1.4239415564260764e-06 1.5117330796603757e-15 -4.0000000000000024e-06 -3.6000000000000001e-05 3.5999999999999987e-05 0 0 0 1.3420332998428133e-11 -2.6840665996856261e-12 4.0260998995284403e-12
411 1.5212921310851945e-06 1.8434717169977501e-15 -4.0000000000000024e-06 -2.8000000000000003e-05 -3.6000000000000001e-05 0 0 0 1.4337840548943624e-11 -2.8675681097887247e-12 4.3013521646830868e-12
412 1.2614050006392393e-06 1.0509021181120817e-15 -4.0000000000000024e-06 -2.8000000000000003e-05 -2.8000000000000003e-05 0 0 0 1.1888462049628988e-11 -2.3776924099257977e-12 3.5665386148886959e-12
413 1.5589507896214381e-06 1.9837906602478176e-15 -4.0000000000000024e-06 -2.8000000000000003e-05 -2.0000000000000005e-05 0 0 0 1.4692765043948151e-11 -2.9385530087896304e-12 4.4078295131844454e-12
414 1.4248643194148403e-06 1.5146739493464894e-15 -4.0000000000000024e-06 -2.8000000000000003e-05 -1.2000000000000004e-05 0 0 0 1.3429029834707648e-11 -2.6858059669415293e-12 4.0287089504122945e-12
415 1.9550136931072949e-06 3.9124430869757837e-15 -4.0000000000000024e-06 -2.8000000000000003e-05 -4.0000000000000024e-06 0 0 0 1.8425569967799985e-11 -3.6851139935599968e-12 5.5276709903399948e-12
416 2.101473622149292e-06 4.8592635185066036e-15 -4.0000000000000024e-06 -2.8000000000000003e-05 3.9999999999999956e-06 0 0 0 1.9805922279170848e-11 -3.9611844558341691e-12 5.9417766837512533e-12
417 2.0311859521767665e-06 4.3878086009157792e-15 -4.0000000000000024e-06 -2.8000000000000003e-05 1.1999999999999994e-05 0 0 0 1.9143476596299955e-11 -3.8286953192599911e-12 5.7430429788899871e-12
418 2.4199100171199561e-06 7.4198696232055959e-15 -4.0000000000000024e-06 -2.8000000000000003e-05 1.9999999999999991e-05 0 0 0 2.2807114596397216e-11 -4.5614229192794425e-12 6.8421343789191649e-12
419 2.7387643493099392e-06 1.0756292911919398e-14 -4.0000000000000024e-06 -2.8000000000000003e-05 2.7999999999999996e-05 0 0 0 2.5812245879117205e-11 -5.1624491758234405e-12 7.7436737637351612e-12
420 2.2083512408334563e-06 5.6390126791939471e-15 -4.0000000000000024e-06 -2.8000000000000003e-05 3.5999999999999987e-05 0 0 0 2.0813220104244872e-11 -4.1626440208489739e-12 6.2439660312734616e-12
421 3.584256275124452e-06 2.4109920873649934e-14 -4.0000000000000024e-06 -2.0000000000000005e-05 -3.6000000000000001e-05 0 0 0 3.378081954754228e-11 -6.7561639095084565e-12 1.0134245864262684e-11
422 1.6644700505488567e-06 2.4144964862243696e-15 -4.0000000000000024e-06 -2.0000000000000005e-05 -2.8000000000000003e-05 0 0 0 1.5687260648773559e-11 -3.1374521297547123e-12 4.7061781946320678e-12
423 2.1648542119761498e-06 5.3123243939367641e-15 -4.0000000000000024e-06 -2.0000000000000005e-05 -2.0000000000000005e-05 0 0 0 2.040327026531158e-11 -4.0806540530623154e-12 6.1209810795934727e-12
424 1.5547999925735937e-06 1.9679869397060673e-15 -4.0000000000000024e-06 -2.0000000000000005e-05 -1.2000000000000004e-05 0 0 0 1.4653644703412e-11 -2.9307289406823999e-12 4.3960934110236002e-12
425 1.5238771353817526e-06 1.852885065452497e-15 -4.0000000000000024e-06 -2.0000000000000005e-05 -4.0000000000000024e-06 0 0 0 1.4362203640466319e-11 -2.8724407280932636e-12 4.3086610921398949e-12
426 1.8990366204539002e-06 3.5859038555686719e-15 -4.0000000000000024e-06 -2.0000000000000005e-05 3.9999999999999956e-06 0 0 0 1.7897998487147884e-11 -3.5795996974295767e-12 5.3693995461443648e-12
427 1.9153874280094415e-06 3.6793281219744693e-15 -4.0000000000000024e-06 -2.0000000000000005e-05 1.1999999999999994e-05 0 0 0 1.805210121783813e-11 -3.6104202435676259e-12 5.41563036535144e-12
428 1.8150518039605497e-06 3.1308747706032012e-15 -4.0000000000000024e-06 -2.0000000000000005e-05 1.9999999999999991e-05 0 0 0 1.7106460239622092e-11 -3.4212920479244183e-12 5.131938071886628e-12
429 2.8106254989064652e-06 1.1625390993667823e-14 -4.0000000000000024e-06 -2.0000000000000005e-05 2.7999999999999996e-05 0 0 0 2.6489521258070094e-11 -5.2979042516140183e-12 7.9468563774210295e-12
430 2.1587557088089603e-06 5.2675554925797913e-15 -4.0000000000000024e-06 -2.0000000000000005e-05 3.5999999999999987e-05 0 0 0 2.0345793227067771e-11 -4.0691586454135541e-12 6.103737968120332e-12
431 3.7188109983997599e-06 2.692842434817249e-14 -4.0000000000000024e-06 -1.2000000000000004e-05 -3.6000000000000001e-05 0 0 0 3.5048967937984832e-11 -7.0097935875969653e-12 1.0514690381395449e-11
432 1.0583882244399385e-06 6.2077414457030941e-16 -4.0000000000000024e-06 -1.2000000000000004e-05 -2.8000000000000003e-05 0 0 0 9.9750740116393688e-12 -1.9950148023278736e-12 2.9925222034918108e-12
433 1.8834597148228904e-06 3.4983852153317879e-15 -4.0000000000000024e-06 -1.2000000000000004e-05 -2.0000000000000005e-05 0 0 0 1.7751189610259759e-11 -3.5502379220519514e-12 5.3253568830779276e-12
434 1.6206364001418514e-06 2.2287193805650167e-15 -4.0000000000000024e-06 -1.2000000000000004e-05 -1.2000000000000004e-05 0 0 0 1.5274138226477548e-11 -3.0548276452955097e-12 4.5822414679432641e-12
435 1.9698656388110299e-06 4.0022889179456516e-15 -4.0000000000000024e-06 -1.2000000000000004e-05 -4.0000000000000024e-06 0 0 0 1.8565546258343092e-11 -3.7131092516686181e-12 5.5696638775029263e-12
436 1.5278653425932158e-06 1.8674709782558713e-15 -4.0000000000000024e-06 -1.2000000000000004e-05 3.9999999999999956e-06 0 0 0 1.4399791607895899e-11 -2.8799583215791797e-12 4.3199374823687693e-12
437 1.2887886571101002e-06 1.1208402999082303e-15 -4.0000000000000024e-06 -1.2000000000000004e-05 1.1999999999999994e-05 0 0 0 1.2146546931620838e-11 -2.4293093863241675e-12 3.6439640794862509e-12
438 2.9325271474524183e-06 1.3204584679042245e-14 -4.0000000000000024e-06 -1.2000000000000004e-05 1.9999999999999991e-05 0 0 0 2.7638417228667448e-11 -5.5276834457334901e-12 8.2915251686002348e-12
439 1.6390724698840058e-06 2.3056484514355566e-15 -4.0000000000000024e-06 -1.2000000000000004e-05 2.7999999999999996e-05 0 0 0 1.5447894090266609e-11 -3.0895788180533222e-12 4.6343682270799828e-12
440 1.2421202789152498e-06 1.0034357706445768e-15 -4.0000000000000024e-06 -1.2000000000000004e-05 3.5999999999999987e-05 0 0 0 1.1706707829345161e-11 -2.3413415658690326e-12 3.5120123488035481e-12
441 2.3534265292760101e-06 6.8249670130470682e-15 -4.0000000000000024e-06 -4.0000000000000024e-06 -3.6000000000000001e-05 0 0 0 2.2180522485410514e-11 -4.4361044970821024e-12 6.6541567456231537e-12
442 2.0488401412230538e-06 4.5032166900028246e-15 -4.0000000000000024e-06 -4.0000000000000024e-06 -2.8000000000000003e-05 0 0 0 1.9309863408138663e-11 -3.8619726816277328e-12 5.792959022441598e-12
443 1.9416463307499667e-06 3.8327368433372909e-15 -4.0000000000000024e-06 -4.0000000000000024e-06 -2.0000000000000005e-05 0 0 0 1.829958554566102e-11 -3.659917109132204e-12 5.4898756636983052e-12
444 1.5320698939043208e-06 1.8829307929971211e-15 -4.0000000000000024e-06 -4.0000000000000024e-06 -1.2000000000000004e-05 0 0 0 1.4439418570427726e-11 -2.8878837140855454e-12 4.3318255711283173e-12
445 2.0997048641714618e-06 4.8470040797393557e-15 -4.0000000000000024e-06 -4.0000000000000024e-06 -4.0000000000000024e-06 0 0 0 1.9789252127963456e-11 -3.9578504255926919e-12 5.9367756383890346e-12
446 1.6771555494641158e-06 2.4701234176217695e-15 -4.0000000000000024e-06 -4.0000000000000024e-06 3.9999999999999956e-06 0 0 0 1.5806818659371457e-11 -3.1613637318742921e-12 4.7420455978114355e-12
447 1.626625327771599e-06 2.25351894374283e-15 -4.0000000000000024e-06 -4.0000000000000024e-06 1.1999999999999994e-05 0 0 0 1.5330582539611034e-11 -3.0661165079222075e-12 4.5991747618833098e-12
448 1.3805168404620373e-06 1.3776019497345274e-15 -4.0000000000000024e-06 -4.0000000000000024e-06 1.9999999999999991e-05 0 0 0 1.3011064692457586e-11 -2.6022129384915175e-12 3.9033194077372754e-12
449 1.0508528010060097e-06 6.0760911573690839e-16 -4.0000000000000024e-06 -4.0000000000000024e-06 2.7999999999999996e-05 0 0 0 9.9040543189342099e-12 -1.9808108637868422e-12 2.9712162956802627e-12
450 1.6897064623832909e-06 2.5259945982749539e-15 -4.0000000000000024e-06 -4.0000000000000024e-06 3.5999999999999987e-05 0 0 0 1.5925108226839636e-11 -3.1850216453679277e-12 4.7775324680518904e-12
451 1.0830756637603984e-06 6.6523488395215347e-16 -4.0000000000000024e-06 3.9999999999999956e-06 -3.6000000000000001e-05 0 0 0 1.020774764565467e-11 -2.041549529130934e-12 3.0623242936964006e-12
452 1.2147431123422558e-06 9.3853820934452245e-16 -4.0000000000000024e-06 3.9999999999999956e-06 -2.8000000000000003e-05 0 0 0 1.1448684113199695e-11 -2.2897368226399391e-12 3.4346052339599082e-12
453 1.7953975099510958e-06 3.0302640802617118e-15 -4.0000000000000024e-06 3.9999999999999956e-06 -2.0000000000000005e-05 0 0 0 1.6921222882607309e-11 -3.3842445765214622e-12 5.0763668647821924e-12
454 1.8055234997339614e-06 3.0818255994509313e-15 -4.0000000000000024e-06 3.9999999999999956e-06 -1.2000000000000004e-05 0 0 0 1.7016658087943839e-11 -3.4033316175887682e-12 5.1049974263831509e-12
455 1.8414318082108664e-06 3.2693810759089367e-15 -4.0000000000000024e-06 3.9999999999999956e-06 -4.0000000000000024e-06 0 0 0 1.7355085922285482e-11 -3.4710171844570968e-12 5.206525776685643e-12
456 3.0087239311164012e-06 1.4260857605040405e-14 -4.0000000000000024e-06 3.9999999999999956e-06 3.9999999999999956e-06 0 0 0 2.8356554996025266e-11 -5.6713109992050542e-12 8.5069664988075772e-12
457 1.9468835208314021e-06 3.863834621388868e-15 -4.0000000000000024e-06 3.9999999999999956e-06 1.1999999999999994e-05 0 0 0 1.8348944899316893e-11 -3.669788979863379e-12 5.5046834697950673e-12
458 1.3959425090288082e-06 1.4242991656553289e-15 -4.0000000000000024e-06 3.9999999999999956e-06 1.9999999999999991e-05 0 0 0 1.3156448193595822e-11 -2.6312896387191648e-12 3.9469344580787461e-12
459 1.9855223525751249e-06 4.0984813592855429e-15 -4.0000000000000024e-06 3.9999999999999956e-06 2.7999999999999996e-05 0 0 0 1.8713107309165006e-11 -3.7426214618330021e-12 5.6139321927495008e-12
460 3.4232627027059896e-06 2.1004836598869814e-14 -4.0000000000000024e-06 3.9999999999999956e-06 3.5999999999999987e-05 0 0 0 3.2263490874387234e-11 -6.4526981748774483e-12 9.6790472623161701e-12
461 1.6881975342061794e-06 2.5192334090964169e-15 -4.0000000000000024e-06 1.1999999999999994e-05 -3.6000000000000001e-05 0 0 0 1.591088691381161e-11 -3.182177382762322e-12 4.7732660741434836e-12
462 3.0454314759258697e-06 1.4789214859720439e-14 -4.0000000000000024e-06 1.1999999999999994e-05 -2.8000000000000003e-05 0 0 0 2.8702515455339501e-11 -5.7405030910679e-12 8.6107546366018512e-12
463 1.9099342681958877e-06 3.6479920661080813e-15 -4.0000000000000024e-06 1.1999999999999994e-05 -2.0000000000000005e-05 0 0 0 1.8000706397410795e-11 -3.6001412794821585e-12 5.4002119192232388e-12
464 1.7965124962689868e-06 3.0359131941703679e-15 -4.0000000000000024e-06 1.1999999999999994e-05 -1.2000000000000004e-05 0 0 0 1.6931731381082729e-11 -3.3863462762165459e-12 5.0795194143248188e-12
465 1.812119670742573e-06 3.1157259140542372e-15 -4.0000000000000024e-06 1.1999999999999994e-05 -4.0000000000000024e-06 0 0 0 1.7078825535091268e-11 -3.4157651070182536e-12 5.1236476605273796e-12
466 3.3921103059092612e-06 2.0436594198579139e-14 -4.0000000000000024e-06 1.1999999999999994e-05 3.9999999999999956e-06 0 0 0 3.1969886451632284e-11 -6.3939772903264566e-12 9.5909659354896829e-12
467 4.2299003466221374e-06 3.9626802447970631e-14 -4.0000000000000024e-06 1.1999999999999994e-05 1.1999999999999994e-05 0 0 0 3.986587156309508e-11 -7.9731743126190164e-12 1.1959761468928522e-11
468 2.0244940836136941e-06 4.344583595936158e-15 -4.0000000000000024e-06 1.1999999999999994e-05 1.9999999999999991e-05 0 0 0 1.9080407220950345e-11 -3.8160814441900692e-12 5.7241221662851026e-12
469 1.3641410557272487e-06 1.3291575476459997e-15 -4.0000000000000024e-06 1.1999999999999994e-05 2.7999999999999996e-05 0 0 0 1.2856726557398848e-11 -2.5713453114797697e-12 3.857017967219654e-12
470 3.9854158321198465e-06 3.3145116317359416e-14 -4.0000000000000024e-06 1.1999999999999994e-05 3.5999999999999987e-05 0 0 0 3.7561659299064487e-11 -7.5123318598128973e-12 1.1268497789719344e-11
471 1.5481230647179833e-06 1.9427417142909779e-15 -4.0000000000000024e-06 1.9999999999999991e-05 -3.6000000000000001e-05 0 0 0 1.4590716140912797e-11 -2.918143228182559e-12 4.3772148422738391e-12
472 3.8478464463058534e-06 2.982990155215083e-14 -4.0000000000000024e-06 1.9999999999999991e-05 -2.8000000000000003e-05 0 0 0 3.6265098383568182e-11 -7.2530196767136354e-12 1.0879529515070456e-11
473 2.0187767560213444e-06 4.3078791291254241e-15 -4.0000000000000024e-06 1.9999999999999991e-05 -2.0000000000000005e-05 0 0 0 1.9026522677863471e-11 -3.8053045355726936e-12 5.7079568033590411e-12
474 1.5453158880012427e-06 1.9321926762661315e-15 -4.0000000000000024e-06 1.9999999999999991e-05 -1.2000000000000004e-05 0 0 0 1.4564259123660874e-11 -2.9128518247321751e-12 4.3692777370982621e-12
475 1.3264745698630102e-06 1.2220680997385412e-15 -4.0000000000000024e-06 1.9999999999999991e-05 -4.0000000000000024e-06 0 0 0 1.2501728291565942e-11 -2.5003456583131884e-12 3.7505184874697821e-12
476 2.4219344438632174e-06 7.4385069510576006e-15 -4.0000000000000024e-06 1.9999999999999991e-05 3.9999999999999956e-06 0 0 0 2.2826194368950296e-11 -4.5652388737900591e-12 6.8478583106850875e-12
477 3.8005731959104659e-06 2.874391537687638e-14 -4.0000000000000024e-06 1.9999999999999991e-05 1.1999999999999994e-05 0 0 0 3.5819558495107801e-11 -7.1639116990215605e-12 1.074586754853234e-11
478 2.9637514893332638e-06 1.363088262088626e-14 -4.0000000000000024e-06 1.9999999999999991e-05 1.9999999999999991e-05 0 0 0 2.7932699717865571e-11 -5.5865399435731141e-12 8.3798099153596708e-12
479 1.996072614908925e-06 4.1641621418043969e-15 -4.0000000000000024e-06 1.9999999999999991e-05 2.7999999999999996e-05 0 0 0 1.8812541189088942e-11 -3.7625082378177885e-12 5.6437623567266819e-12
480 1.5435447683327526e-06 1.9255567053605653e-15 -4.0000000000000024e-06 1.9999999999999991e-05 3.5999999999999987e-05 0 0 0 1.4547566714043404e-11 -2.9095133428086809e-12 4.3642700142130207e-12
481 2.3938492467132343e-06 7.1827212697719386e-15 -4.0000000000000024e-06 2.7999999999999996e-05 -3.6000000000000001e-05 0 0 0 2.256149762182727e-11 -4.5122995243654541e-12 6.7684492865481816e-12
482 1.4556231147732222e-06 1.6148993232582314e-15 -4.0000000000000024e-06 2.7999999999999996e-05 -2.8000000000000003e-05 0 0 0 1.3718924651301141e-11 -2.743784930260228e-12 4.1156773953903424e-12
483 2.0150155697787894e-06 4.2838459113795216e-15 -4.0000000000000024e-06 2.7999999999999996e-05 -2.0000000000000005e-05 0 0 0 1.899107433265829e-11 -3.7982148665316571e-12 5.6973222997974869e-12
484 1.8461103562833891e-06 3.2943641113882471e-15 -4.0000000000000024e-06 2.7999999999999996e-05 -1.2000000000000004e-05 0 0 0 1.7399180199047793e-11 -3.4798360398095589e-12 5.2197540597143374e-12
485 2.3132892536357091e-06 6.4816927931245732e-15 -4.0000000000000024e-06 2.7999999999999996e-05 -4.0000000000000024e-06 0 0 0 2.1802237574550477e-11 -4.3604475149100952e-12 6.5406712723651427e-12
486 1.2805842110222247e-06 1.0995704270004765e-15 -4.0000000000000024e-06 2.7999999999999996e-05 3.9999999999999956e-06 0 0 0 1.2069221848951508e-11 -2.4138443697903016e-12 3.6207665546854521e-12
487 2.7402915363383668e-06 1.0774296687218035e-14 -4.0000000000000024e-06 2.7999999999999996e-05 1.1999999999999994e-05 0 0 0 2.5826639277764705e-11 -5.1653278555529411e-12 7.7479917833294105e-12
488 1.7235177928381915e-06 2.680685936913542e-15 -4.0000000000000024e-06 2.7999999999999996e-05 1.9999999999999991e-05 0 0 0 1.6243772508935273e-11 -3.2487545017870547e-12 4.8731317526805814e-12
489 3.2676566175048098e-06 1.8268709051854885e-14 -4.0000000000000024e-06 2.7999999999999996e-05 2.7999999999999996e-05 0 0 0 3.0796938072021552e-11 -6.1593876144043106e-12 9.2390814216064647e-12
490 2.5498741305279161e-06 8.6807020674284228e-15 -4.0000000000000024e-06 2.7999999999999996e-05 3.5999999999999987e-05 0 0 0 2.4031997508135489e-11 -4.8063995016270981e-12 7.2095992524406455e-12
491 2.2690636772514407e-06 6.1170027197382616e-15 -4.0000000000000024e-06 3.5999999999999987e-05 -3.6000000000000001e-05 0 0 0 2.1385421336941705e-11 -4.2770842673883404e-12 6.4156264010825114e-12
492 1.9822890425105494e-06 4.078491516587825e-15 -4.0000000000000024e-06 3.5999999999999987e-05 -2.8000000000000003e-05 0 0 0 1.8682634079728064e-11 -3.7365268159456122e-12 5.6047902239184199e-12
493 1.8565260924384771e-06 3.3504396101868986e-15 -4.0000000000000024e-06 3.5999999999999987e-05 -2.0000000000000005e-05 0 0 0 1.7497346199607455e-11 -3.4994692399214907e-12 5.2492038598822368e-12
494 1.8828138322939789e-06 3.494787414259414e-15 -4.0000000000000024e-06 3.5999999999999987e-05 -1.2000000000000004e-05 0 0 0 1.7745102310836024e-11 -3.5490204621672052e-12 5.3235306932508072e-12
495 2.1212046319105135e-06 4.9974254325919016e-15 -4.0000000000000024e-06 3.5999999999999987e-05 -4.0000000000000024e-06 0 0 0 1.9991882665112131e-11 -3.9983765330224263e-12 5.9975647995336391e-12
496 2.1501785216132858e-06 5.2050173355802364e-15 -4.0000000000000024e-06 3.5999999999999987e-05 3.9999999999999956e-06 0 0 0 2.0264955142220582e-11 -4.052991028444117e-12 6.0794865426661739e-12
497 1.5607367554236291e-06 1.9906164871390147e-15 -4.0000000000000024e-06 3.5999999999999987e-05 1.1999999999999994e-05 0 0 0 1.470959737507933e-11 -2.941919475015866e-12 4.4128792125237984e-12
498 1.579988641795122e-06 2.0651923947607404e-15 -4.0000000000000024e-06 3.5999999999999987e-05 1.9999999999999991e-05 0 0 0 1.4891042129456613e-11 -2.9782084258913226e-12 4.4673126388369834e-12
499 2.5432992344724049e-06 8.6137250295164225e-15 -4.0000000000000024e-06 3.5999999999999987e-05 2.7999999999999996e-05 0 0 0 2.3970030572697156e-11 -4.7940061145394314e-12 7.1910091718091459e-12
500 1.5721852400743119e-06 2.0347439531039421e-15 -4.0000000000000024e-06 3.5999999999999987e-05 3.5999999999999987e-05 0 0 0 1.481749680089929e-11 -2.9634993601798582e-12 4.4452490402697869e-12
501 1.9466703881480263e-06 3.8625657946468908e-15 3.9999999999999956e-06 -3.6000000000000001e-05 -3.6000000000000001e-05 0 0 0 1.8346936171099891e-11 -3.6693872342199785e-12 5.5040808513299673e-12
502 1.2848611654627121e-06 1.1106244523517175e-15 3.9999999999999956e-06 -3.6000000000000001e-05 -2.8000000000000003e-05 0 0 0 1.2109531194901428e-11 -2.4219062389802857e-12 3.632859358470428e-12
503 9.6246348924346915e-07 4.6682210574937356e-16 3.9999999999999956e-06 -3.6000000000000001e-05 -2.0000000000000005e-05 0 0 0 9.0710046814670449e-12 -1.8142009362934091e-12 2.7213014044401134e-12
504 1.5979972550073447e-06 2.1366171458920728e-15 3.9999999999999956e-06 -3.6000000000000001e-05 -1.2000000000000004e-05 0 0 0 1.5060769310363189e-11 -3.0121538620726377e-12 4.5182307931089569e-12
505 2.2655647545154752e-06 6.0887488630694645e-15 3.9999999999999956e-06 -3.6000000000000001e-05 -4.0000000000000024e-06 0 0 0 2.135244476705334e-11 -4.2704889534106681e-12 6.4057334301160018e-12
506 1.0665579286449747e-06 6.3526066945678384e-16 3.9999999999999956e-06 -3.6000000000000001e-05 3.9999999999999956e-06 0 0 0 1.0052071659776998e-11 -2.0104143319553997e-12 3.0156214979330987e-12
507 3.7577212914411749e-06 2.7782563707278941e-14 3.9999999999999956e-06 -3.6000000000000001e-05 1.1999999999999994e-05 0 0 0 3.5415688810288639e-11 -7.0831377620577261e-12 1.0624706643086592e-11
508 2.3041204824334772e-06 6.4049268799159172e-15 3.9999999999999956e-06 -3.6000000000000001e-05 1.9999999999999991e-05 0 0 0 2.1715823941796348e-11 -4.3431647883592692e-12 6.5147471825389046e-12
509 1.5737601625695356e-06 2.0408649402953571e-15 3.9999999999999956e-06 -3.6000000000000001e-05 2.7999999999999996e-05 0 0 0 1.4832340095722196e-11 -2.9664680191444386e-12 4.4497020287166589e-12
510 1.231767168638469e-06 9.7855332093195267e-16 3.9999999999999956e-06 -3.6000000000000001e-05 3.5999999999999987e-05 0 0 0 1.1609132063783142e-11 -2.3218264127566283e-12 3.4827396191349429e-12
511 1.5706527587131532e-06 2.0287996751062732e-15 3.9999999999999956e-06 -2.8000000000000003e-05 -3.6000000000000001e-05 0 0 0 1.4803053504341352e-11 -2.9606107008682705e-12 4.4409160513024049e-12
512 3.7694906639840454e-06 2.8044431350897823e-14 3.9999999999999956e-06 -2.8000000000000003e-05 -2.8000000000000003e-05 0 0 0 3.5526612533242765e-11 -7.1053225066485527e-12 1.0657983759972828e-11
513 1.800436245763949e-06 3.0558488179318682e-15 3.9999999999999956e-06 -2.8000000000000003e-05 -2.0000000000000005e-05 0 0 0 1.6968711848846431e-11 -3.393742369769286e-12 5.0906135546539288e-12
514 3.6293738279527274e-06 2.5031895188387416e-14 3.9999999999999956e-06 -2.8000000000000003e-05 -1.2000000000000004e-05 0 0 0 3.4206042465082067e-11 -6.8412084930164118e-12 1.026181273952462e-11
515 2.0641734355339763e-06 4.6050799698040622e-15 3.9999999999999956e-06 -2.8000000000000003e-05 -4.0000000000000024e-06 0 0 0 1.9454376302426231e-11 -3.8908752604852463e-12 5.8363128907278694e-12
516 2.1154125431781115e-06 4.9565997168167926e-15 3.9999999999999956e-06 -2.8000000000000003e-05 3.9999999999999956e-06 0 0 0 1.9937293514880171e-11 -3.987458702976034e-12 5.9811880544640506e-12
517 2.271613521002236e-06 6.137647713547294e-15 3.9999999999999956e-06 -2.8000000000000003e-05 1.1999999999999994e-05 0 0 0 2.1409453048127605e-11 -4.2818906096255207e-12 6.4228359144382819e-12
518 1.8560623282915526e-06 3.3479293966321533e-15 3.9999999999999956e-06 -2.8000000000000003e-05 1.9999999999999991e-05 0 0 0 1.7492975325496525e-11 -3.4985950650993048e-12 5.2478925976489585e-12
519 2.9439029800660899e-06 1.3358850876488541e-14 3.9999999999999956e-06 -2.8000000000000003e-05 2.7999999999999996e-05 0 0 0 2.7745631925170182e-11 -5.5491263850340362e-12 8.3236895775510555e-12
520 1.2842478072225046e-06 1.1090346645879043e-15 3.9999999999999956e-06 -2.8000000000000003e-05 3.5999999999999987e-05 0 0 0 1.2103750429677063e-11 -2.4207500859354123e-12 3.6311251289031193e-12
521 2.7523437847330489e-06 1.0917084186380034e-14 3.9999999999999956e-06 -2.0000000000000005e-05 -3.6000000000000001e-05 0 0 0 2.5940229042812622e-11 -5.1880458085625245e-12 7.7820687128437851e-12
522 2.4692764516431208e-06 7.8832947828059706e-15 3.9999999999999956e-06 -2.0000000000000005e-05 -2.8000000000000003e-05 0 0 0 2.32723822804929e-11 -4.6544764560985803e-12 6.9817146841478696e-12
523 2.8187128491176585e-06 1.1726033429508398e-14 3.9999999999999956e-06 -2.0000000000000005e-05 -2.0000000000000005e-05 0 0 0 2.6565742738101574e-11 -5.3131485476203151e-12 7.9697228214304718e-12
524 1.3620721778319846e-06 1.3231192506277611e-15 3.9999999999999956e-06 -2.0000000000000005e-05 -1.2000000000000004e-05 0 0 0 1.283722784260804e-11 -2.5674455685216077e-12 3.8511683527824125e-12
525 2.7352361257918362e-06 1.0714775937362391e-14 3.9999999999999956e-06 -2.0000000000000005e-05 -4.0000000000000024e-06 0 0 0 2.5778993155863123e-11 -5.1557986311726248e-12 7.733697946758936e-12
526 1.5297265477081881e-06 1.8743040064452174e-15 3.9999999999999956e-06 -2.0000000000000005e-05 3.9999999999999956e-06 0 0 0 1.4417333052843961e-11 -2.8834666105687923e-12 4.325199915853188e-12
527 1.5765956532927387e-06 2.0519160896743917e-15 3.9999999999999956e-06 -2.0000000000000005e-05 1.1999999999999994e-05 0 0 0 1.4859063966198205e-11 -2.9718127932396407e-12 4.4577191898594621e-12
528 1.8696614475884163e-06 3.4220593803197355e-15 3.9999999999999956e-06 -2.0000000000000005e-05 1.9999999999999991e-05 0 0 0 1.762114400533148e-11 -3.5242288010662955e-12 5.2863432015994443e-12
529 1.6460207572473732e-06 2.335094952815819e-15 3.9999999999999956e-06 -2.0000000000000005e-05 2.7999999999999996e-05 0 0 0 1.5513380155873969e-11 -3.1026760311747934e-12 4.6540140467621907e-12
530 2.158103261725604e-06 5.2627808495847907e-15 3.9999999999999956e-06 -2.0000000000000005e-05 3.5999999999999987e-05 0 0 0 2.0339644058175983e-11 -4.0679288116351961e-12 6.1018932174527962e-12
531 1.7470189976946614e-06 2.7918463001691137e-15 3.9999999999999956e-06 -1.2000000000000004e-05 -3.6000000000000001e-05 0 0 0 1.6465266146518056e-11 -3.2930532293036109e-12 4.9395798439554174e-12
532 2.0054094626711535e-06 4.2228708742276197e-15 3.9999999999999956e-06 -1.2000000000000004e-05 -2.8000000000000003e-05 0 0 0 1.8900538906101451e-11 -3.7801077812202896e-12 5.6701616718304356e-12
533 3.7610593341011768e-06 2.7856668555855742e-14 3.9999999999999956e-06 -1.2000000000000004e-05 -2.0000000000000005e-05 0 0 0 3.5447149121182735e-11 -7.0894298242365457e-12 1.063414473635482e-11
534 2.1201462378225403e-06 4.9899486336412179e-15 3.9999999999999956e-06 -1.2000000000000004e-05 -1.2000000000000004e-05 0 0 0 1.9981907535837992e-11 -3.9963815071675984e-12 5.9945722607513968e-12
535 4.3503257433558923e-06 4.3108603488976257e-14 3.9999999999999956e-06 -1.2000000000000004e-05 -4.0000000000000024e-06 0 0 0 4.1000854188148282e-11 -8.2001708376296576e-12 1.2300256256444483e-11
536 2.3953437604434151e-06 7.1961824918300797e-15 3.9999999999999956e-06 -1.2000000000000004e-05 3.9999999999999956e-06 0 0 0 2.2575583081893547e-11 -4.5151166163787096e-12 6.7726749245680632e-12
537 2.4491371987026541e-06 7.6919768094819951e-15 3.9999999999999956e-06 -1.2000000000000004e-05 1.1999999999999994e-05 0 0 0 2.3082574293233229e-11 -4.6165148586466462e-12 6.9247722879699681e-12
538 2.9693668582812803e-06 1.370850810720501e-14 3.9999999999999956e-06 -1.2000000000000004e-05 1.9999999999999991e-05 0 0 0 2.7985623323368426e-11 -5.5971246646736854e-12 8.3956869970105269e-12
539 1.459401218875512e-06 1.6275065167448242e-15 3.9999999999999956e-06 -1.2000000000000004e-05 2.7999999999999996e-05 0 0 0 1.3754532443577896e-11 -2.7509064887155795e-12 4.1263597330733684e-12
540 1.505052195711151e-06 1.785062009826202e-15 3.9999999999999956e-06 -1.2000000000000004e-05 3.5999999999999987e-05 0 0 0 1.4184782763946019e-11 -2.8369565527892038e-12 4.255434829183805e-12
541 3.610137924164622e-06 2.4635989210931308e-14 3.9999999999999956e-06 -4.0000000000000024e-06 -3.6000000000000001e-05 0 0 0 3.4024748343004448e-11 -6.804949668600889e-12 1.0207424502901332e-11
542 2.7189384028359704e-06 1.0524385044311448e-14 3.9999999999999956e-06 -4.0000000000000024e-06 -2.8000000000000003e-05 0 0 0 2.5625390735737952e-11 -5.1250781471475904e-12 7.687617220721384e-12
543 3.1785134662051659e-06 1.681399018107577e-14 3.9999999999999956e-06 -4.0000000000000024e-06 -2.0000000000000005e-05 0 0 0 2.9956783664299137e-11 -5.9913567328598279e-12 8.9870350992897399e-12
544 2.2084995656609857e-06 5.6401489953918352e-15 3.9999999999999956e-06 -4.0000000000000024e-06 -1.2000000000000004e-05 0 0 0 2.0814618032810407e-11 -4.1629236065620822e-12 6.2443854098431213e-12
545 1.5021822740442205e-06 1.7748698871566339e-15 3.9999999999999956e-06 -4.0000000000000024e-06 -4.0000000000000024e-06 0 0 0 1.4157734389470398e-11 -2.8315468778940802e-12 4.2473203168411185e-12
546 3.0541579771584814e-06 1.4916712323574041e-14 3.9999999999999956e-06 -4.0000000000000024e-06 3.9999999999999956e-06 0 0 0 2.8784760791831247e-11 -5.7569521583662506e-12 8.6354282375493722e-12
547 2.8720993994627684e-06 1.2405007204344581e-14 3.9999999999999956e-06 -4.0000000000000024e-06 1.1999999999999994e-05 0 0 0 2.7068899121195671e-11 -5.4137798242391351e-12 8.1206697363587002e-12
548 2.1373900915930389e-06 5.1126963204944717e-15 3.9999999999999956e-06 -4.0000000000000024e-06 1.9999999999999991e-05 0 0 0 2.0144427028812921e-11 -4.0288854057625844e-12 6.0433281086438754e-12
549 2.1301066277143822e-06 5.060607482411919e-15 3.9999999999999956e-06 -4.0000000000000024e-06 2.7999999999999996e-05 0 0 0 2.0075781998971296e-11 -4.0151563997942598e-12 6.0227345996913881e-12
550 1.923228898174009e-06 3.7247021564152152e-15 3.9999999999999956e-06 -4.0000000000000024e-06 3.5999999999999987e-05 0 0 0 1.8126005333025177e-11 -3.6252010666050358e-12 5.4378015999075523e-12
551 2.385726463688879e-06 7.1098520956926196e-15 3.9999999999999956e-06 3.9999999999999956e-06 -3.6000000000000001e-05 0 0 0 2.2484942195399214e-11 -4.4969884390798432e-12 6.745482658619764e-12
552 1.4367560413994121e-06 1.5529151190124251e-15 3.9999999999999956e-06 3.9999999999999956e-06 -2.8000000000000003e-05 0 0 0 1.3541106673983438e-11 -2.7082213347966876e-12 4.0623320021950309e-12
553 1.2463798503080883e-06 1.013794382183496e-15 3.9999999999999956e-06 3.9999999999999956e-06 -2.0000000000000005e-05 0 0 0 1.174685334393071e-11 -2.3493706687861418e-12 3.5240560031792125e-12
554 2.3947506209599432e-06 7.1908380191206625e-15 3.9999999999999956e-06 3.9999999999999956e-06 -1.2000000000000004e-05 0 0 0 2.2569992873962062e-11 -4.5139985747924127e-12 6.7709978621886175e-12
555 2.4167439070557439e-06 7.3907841601028341e-15 3.9999999999999956e-06 3.9999999999999956e-06 -4.0000000000000024e-06 0 0 0 2.2777274712042659e-11 -4.5554549424085321e-12 6.833182413612795e-12
556 1.9217405183058479e-06 3.7160612465707842e-15 3.9999999999999956e-06 3.9999999999999956e-06 3.9999999999999956e-06 0 0 0 1.8111977683246481e-11 -3.6223955366492967e-12 5.4335933049739428e-12
557 2.7739731290359403e-06 1.1176488402328041e-14 3.9999999999999956e-06 3.9999999999999956e-06 1.1999999999999994e-05 0 0 0 2.6144080810304405e-11 -5.2288161620608823e-12 7.8432242430913203e-12
558 2.6245758885894926e-06 9.4662076423334435e-15 3.9999999999999956e-06 3.9999999999999956e-06 1.9999999999999991e-05 0 0 0 2.4736044991144962e-11 -4.9472089982289927e-12 7.4208134973434882e-12
559 1.6708984034341207e-06 2.4425797621204384e-15 3.9999999999999956e-06 3.9999999999999956e-06 2.7999999999999996e-05 0 0 0 1.5747846447370641e-11 -3.149569289474129e-12 4.7243539342111921e-12
560 1.2616992607098776e-06 1.0516377518126157e-15 3.9999999999999956e-06 3.9999999999999956e-06 3.5999999999999987e-05 0 0 0 1.1891235385457473e-11 -2.3782470770914949e-12 3.5673706156372415e-12
561 1.7232021171781819e-06 2.6792132413795116e-15 3.9999999999999956e-06 1.1999999999999994e-05 -3.6000000000000001e-05 0 0 0 1.6240797335932065e-11 -3.2481594671864126e-12 4.8722392007796195e-12
562 2.3012717469100002e-06 6.3811997438920895e-15 3.9999999999999956e-06 1.1999999999999994e-05 -2.8000000000000003e-05 0 0 0 2.1688975242018621e-11 -4.3377950484037239e-12 6.5066925726055867e-12
563 1.1813872211961167e-06 8.6332720981030822e-16 3.9999999999999956e-06 1.1999999999999994e-05 -2.0000000000000005e-05 0 0 0 1.1134312245463741e-11 -2.2268624490927479e-12 3.3402936736391225e-12
564 1.9349573283519722e-06 3.7932616313363384e-15 3.9999999999999956e-06 1.1999999999999994e-05 -1.2000000000000004e-05 0 0 0 1.8236543183280868e-11 -3.6473086366561733e-12 5.4709629549842592e-12
565 3.8948010612234226e-06 3.093530920990236e-14 3.9999999999999956e-06 1.1999999999999994e-05 -4.0000000000000024e-06 0 0 0 3.6707635203399706e-11 -7.3415270406799412e-12 1.101229056101991e-11
566 1.9086665672310375e-06 3.6407329248260962e-15 3.9999999999999956e-06 1.1999999999999994e-05 3.9999999999999956e-06 0 0 0 1.7988758597296429e-11 -3.597751719459286e-12 5.3966275791889279e-12
567 1.8900586958378783e-06 3.5352855371486602e-15 3.9999999999999956e-06 1.1999999999999994e-05 1.1999999999999994e-05 0 0 0 1.781338354109335e-11 -3.5626767082186703e-12 5.3440150623280047e-12
568 1.3084070256131235e-06 1.1728088234056749e-15 3.9999999999999956e-06 1.1999999999999994e-05 1.9999999999999991e-05 0 0 0 1.2331445698714384e-11 -2.4662891397428767e-12 3.6994337096143148e-12
569 2.0354600836362755e-06 4.4155661212513338e-15 3.9999999999999956e-06 1.1999999999999994e-05 2.7999999999999996e-05 0 0 0 1.9183759336280969e-11 -3.8367518672561941e-12 5.7551278008842899e-12
570 1.5133682231903628e-06 1.8148153933561269e-15 3.9999999999999956e-06 1.1999999999999994e-05 3.5999999999999987e-05 0 0 0 1.4263159476453247e-11 -2.8526318952906496e-12 4.2789478429359733e-12
571 1.8697896316236571e-06 3.4227632780048641e-15 3.9999999999999956e-06 1.9999999999999991e-05 -3.6000000000000001e-05 0 0 0 1.7622352111401742e-11 -3.5244704222803477e-12 5.2867056334205226e-12
572 2.0514596622858035e-06 4.520511391253337e-15 3.9999999999999956e-06 1.9999999999999991e-05 -2.8000000000000003e-05 0 0 0 1.9334551812518635e-11 -3.8669103625037263e-12 5.8003655437555906e-12
573 1.8576876458299451e-06 3.3567322498180224e-15 3.9999999999999956e-06 1.9999999999999991e-05 -2.0000000000000005e-05 0 0 0 1.750829358241162e-11 -3.5016587164823236e-12 5.2524880747234863e-12
574 2.6255362160544729e-06 9.4766024484681289e-15 3.9999999999999956e-06 1.9999999999999991e-05 -1.2000000000000004e-05 0 0 0 2.4745095864272029e-11 -4.9490191728544056e-12 7.4235287592816079e-12
575 1.6323522235758601e-06 2.2774048845768927e-15 3.9999999999999956e-06 1.9999999999999991e-05 -4.0000000000000024e-06 0 0 0 1.5384557260970656e-11 -3.0769114521941314e-12 4.6153671782911961e-12
576 2.5663253268956815e-06 8.8498060373917861e-15 3.9999999999999956e-06 1.9999999999999991e-05 3.9999999999999956e-06 0 0 0 2.4187046381090694e-11 -4.837409276218139e-12 7.2561139143272069e-12
577 2.0004091732318868e-06 4.1913616420349717e-15 3.9999999999999956e-06 1.9999999999999991e-05 1.1999999999999994e-05 0 0 0 1.8853412288396782e-11 -3.7706824576793566e-12 5.6560236865190337e-12
578 2.1712065335284511e-06 5.3592255325054713e-15 3.9999999999999956e-06 1.9999999999999991e-05 1.9999999999999991e-05 0 0 0 2.0463139485477428e-11 -4.0926278970954858e-12 6.1389418456432275e-12
579 2.2545429639890468e-06 6.0003166551295257e-15 3.9999999999999956e-06 1.9999999999999991e-05 2.7999999999999996e-05 0 0 0 2.1248566838611641e-11 -4.2497133677223285e-12 6.3745700515834915e-12
580 1.8733235513436507e-06 3.442207143712262e-15 3.9999999999999956e-06 1.9999999999999991e-05 3.5999999999999987e-05 0 0 0 1.7655658520093863e-11 -3.5311317040187729e-12 5.2966975560281583e-12
581 1.8444723101516189e-06 3.2856026627767721e-15 3.9999999999999956e-06 2.7999999999999996e-05 -3.6000000000000001e-05 0 0 0 1.7383741977966362e-11 -3.4767483955932724e-12 5.2151225933899096e-12
582 1.1322030045607227e-06 7.5992639861598709e-16 3.9999999999999956e-06 2.7999999999999996e-05 -2.8000000000000003e-05 0 0 0 1.0670761924500772e-11 -2.1341523849001543e-12 3.2012285773502318e-12
583 1.4604642454536118e-06 1.6310655308616401e-15 3.9999999999999956e-06 2.7999999999999996e-05 -2.0000000000000005e-05 0 0 0 1.3764551233042881e-11 -2.752910246608576e-12 4.129365369912865e-12
584 2.7029587066715359e-06 1.0339912301875761e-14 3.9999999999999956e-06 2.7999999999999996e-05 -1.2000000000000004e-05 0 0 0 2.54747856475076e-11 -5.09495712950152e-12 7.6424356942522784e-12
585 2.332554782511242e-06 6.6449876713325363e-15 3.9999999999999956e-06 2.7999999999999996e-05 -4.0000000000000024e-06 0 0 0 2.1983810906499165e-11 -4.3967621812998334e-12 6.5951432719497493e-12
586 1.6590233105008802e-06 2.3908706845368042e-15 3.9999999999999956e-06 2.7999999999999996e-05 3.9999999999999956e-06 0 0 0 1.5635926333211351e-11 -3.1271852666422703e-12 4.6907778999634049e-12
587 1.4889095695189086e-06 1.7282381429958227e-15 3.9999999999999956e-06 2.7999999999999996e-05 1.1999999999999994e-05 0 0 0 1.4032642096380434e-11 -2.8065284192760867e-12 4.2097926289141297e-12
588 2.0558755716215779e-06 4.549766418210288e-15 3.9999999999999956e-06 2.7999999999999996e-05 1.9999999999999991e-05 0 0 0 1.9376170777503199e-11 -3.8752341555006394e-12 5.8128512332509587e-12
589 2.0038760753973695e-06 4.2131915344278067e-15 3.9999999999999956e-06 2.7999999999999996e-05 2.7999999999999996e-05 0 0 0 1.8886087071518167e-11 -3.7772174143036339e-12 5.6658261214554496e-12
590 2.4007472412335303e-06 7.2449924584934111e-15 3.9999999999999956e-06 2.7999999999999996e-05 3.5999999999999987e-05 0 0 0 2.2626509688555664e-11 -4.5253019377111326e-12 6.7879529065666985e-12
591 1.924193008269751e-06 3.7303065180616515e-15 3.9999999999999956e-06 3.5999999999999987e-05 -3.6000000000000001e-05 0 0 0 1.813509185660728e-11 -3.6270183713214558e-12 5.4405275569821849e-12
592 2.5030501723227762e-06 8.2112124152963584e-15 3.9999999999999956e-06 3.5999999999999987e-05 -2.8000000000000003e-05 0 0 0 2.3590692098807698e-11 -4.7181384197615393e-12 7.0772076296423098e-12
593 1.1000323289844425e-06 6.9697141864977947e-16 3.9999999999999956e-06 3.5999999999999987e-05 -2.0000000000000005e-05 0 0 0 1.0367560450346386e-11 -2.0735120900692768e-12 3.1102681351039158e-12
594 1.9400285409203075e-06 3.8231644546681045e-15 3.9999999999999956e-06 3.5999999999999987e-05 -1.2000000000000004e-05 0 0 0 1.8284338235729292e-11 -3.6568676471458583e-12 5.4853014707187867e-12
595 1.7827498021139047e-06 2.9666739152174726e-15 3.9999999999999956e-06 3.5999999999999987e-05 -4.0000000000000024e-06 0 0 0 1.6802021044529103e-11 -3.3604042089058204e-12 5.04060631335873e-12
596 1.3567163883097121e-06 1.3075726723308834e-15 3.9999999999999956e-06 3.5999999999999987e-05 3.9999999999999956e-06 0 0 0 1.2786750715556006e-11 -2.5573501431112014e-12 3.8360252146668011e-12
597 1.6638175866709607e-06 2.4116581877227832e-15 3.9999999999999956e-06 3.5999999999999987e-05 1.1999999999999994e-05 0 0 0 1.5681111321596968e-11 -3.1362222643193937e-12 4.7043333964790899e-12
598 1.8156408155214019e-06 3.1339238074537218e-15 3.9999999999999956e-06 3.5999999999999987e-05 1.9999999999999991e-05 0 0 0 1.711201154279945e-11 -3.4224023085598901e-12 5.1336034628398345e-12
599 1.444998554038245e-06 1.5797954542396633e-15 3.9999999999999956e-06 3.5999999999999987e-05 2.7999999999999996e-05 0 0 0 1.3618790525443273e-11 -2.7237581050886546e-12 4.0856371576329811e-12
600 1.6859595680796564e-06 2.5092277878839792e-15 3.9999999999999956e-06 3.5999999999999987e-05 3.5999999999999987e-05 0 0 0 1.5889794579985409e-11 -3.1779589159970818e-12 4.7669383739956219e-12
601 3.4506948964502302e-06 2.1513858452926487e-14 1.1999999999999994e-05 -3.6000000000000001e-05 -3.6000000000000001e-05 0 0 0 3.2522033209403504e-11 -6.5044066418807023e-12 9.7566099628210506e-12
602 1.6398580828632407e-06 2.3089653560372458e-15 1.1999999999999994e-05 -3.6000000000000001e-05 -2.8000000000000003e-05 0 0 0 1.5455298318158997e-11 -3.0910596636317997e-12 4.6365894954476982e-12
603 2.1588632945292976e-06 5.2683430879434169e-15 1.1999999999999994e-05 -3.6000000000000001e-05 -2.0000000000000005e-05 0 0 0 2.0346807198593697e-11 -4.0693614397187403e-12 6.1040421595781092e-12
604 2.3698072387015817e-06 6.9684740557522943e-15 1.1999999999999994e-05 -3.6000000000000001e-05 -1.2000000000000004e-05 0 0 0 2.2334907034586409e-11 -4.4669814069172809e-12 6.7004721103759214e-12
605 1.4423431998869217e-06 1.5711022708228871e-15 1.1999999999999994e-05 -3.6000000000000001e-05 -4.0000000000000024e-06 0 0 0 1.3593764402159843e-11 -2.7187528804319682e-12 4.0781293206479537e-12
606 1.7545879505223828e-06 2.8282907292691341e-15 1.1999999999999994e-05 -3.6000000000000001e-05 3.9999999999999956e-06 0 0 0 1.6536601846314868e-11 -3.3073203692629732e-12 4.9609805538944613e-12
607 2.8430379506299117e-06 1.2032242971177139e-14 1.1999999999999994e-05 -3.6000000000000001e-05 1.1999999999999994e-05 0 0 0 2.6795001418727738e-11 -5.3590002837455466e-12 8.0385004256183207e-12
608 1.0549589890572629e-06 6.1475964810362702e-16 1.1999999999999994e-05 -3.6000000000000001e-05 1.9999999999999991e-05 0 0 0 9.9427542295824362e-12 -1.9885508459164873e-12 2.9828262688747308e-12
609 1.9012794652892235e-06 3.598624192216461e-15 1.1999999999999994e-05 -3.6000000000000001e-05 2.7999999999999996e-05 0 0 0 1.7919136801721263e-11 -3.5838273603442524e-12 5.3757410405163788e-12
610 1.1136621929467034e-06 7.2320105536290511e-16 1.1999999999999994e-05 -3.6000000000000001e-05 3.5999999999999987e-05 0 0 0 1.0496018891826186e-11 -2.0992037783652372e-12 3.1488056675478557e-12
611 2.1439200158135483e-06 5.1596989046968676e-15 1.1999999999999994e-05 -2.8000000000000003e-05 -3.6000000000000001e-05 0 0 0 2.0205970114691872e-11 -4.0411940229383751e-12 6.0617910344075602e-12
612 2.5593558817565079e-06 8.7779006317309131e-15 1.1999999999999994e-05 -2.8000000000000003e-05 -2.8000000000000003e-05 0 0 0 2.4121360908144217e-11 -4.8242721816288445e-12 7.2364082724432648e-12
613 2.8974135624363379e-06 1.2735913135162894e-14 1.1999999999999994e-05 -2.8000000000000003e-05 -2.0000000000000005e-05 0 0 0 2.7307479486484292e-11 -5.4614958972968591e-12 8.1922438459452875e-12
614 3.2812800357534527e-06 1.8498159114880627e-14 1.1999999999999994e-05 -2.8000000000000003e-05 -1.2000000000000004e-05 0 0 0 3.0925335764081704e-11 -6.1850671528163408e-12 9.2776007292245111e-12
615 1.8826138560824754e-06 3.4936739741900409e-15 1.1999999999999994e-05 -2.8000000000000003e-05 -4.0000000000000024e-06 0 0 0 1.7743217579445174e-11 -3.5486435158890342e-12 5.3229652738335525e-12
616 1.2771193735826675e-06 1.0906693319395214e-15 1.1999999999999994e-05 -2.8000000000000003e-05 3.9999999999999956e-06 0 0 0 1.2036566525413522e-11 -2.4073133050827038e-12 3.6109699576240565e-12
617 2.0295053122344968e-06 4.3769259541282762e-15 1.1999999999999994e-05 -2.8000000000000003e-05 1.1999999999999994e-05 0 0 0 1.9127636938012066e-11 -3.8255273876024127e-12 5.7382910814036187e-12
618 2.2506981785209035e-06 5.9696710510759673e-15 1.1999999999999994e-05 -2.8000000000000003e-05 1.9999999999999991e-05 0 0 0 2.1212330589267598e-11 -4.242466117853519e-12 6.3636991767802784e-12
619 2.6805778173897238e-06 1.0085185258886261e-14 1.1999999999999994e-05 -2.8000000000000003e-05 2.7999999999999996e-05 0 0 0 2.5263850735461955e-11 -5.0527701470923909e-12 7.5791552206385859e-12
620 2.3782485840564065e-06 7.043205546296281e-15 1.1999999999999994e-05 -2.8000000000000003e-05 3.5999999999999987e-05 0 0 0 2.2414464840245803e-11 -4.4828929680491599e-12 6.7243394520737399e-12
621 3.4954004075955348e-06 2.2360907235428762e-14 1.1999999999999994e-05 -2.0000000000000005e-05 -3.6000000000000001e-05 0 0 0 3.2943372725570702e-11 -6.588674545114142e-12 9.8830118176712106e-12
622 2.2898035604619018e-06 6.286273921768793e-15 1.1999999999999994e-05 -2.0000000000000005e-05 -2.8000000000000003e-05 0 0 0 2.1580890131132585e-11 -4.3161780262265182e-12 6.4742670393397752e-12
623 1.585409112900588e-06 2.0865205809734983e-15 1.1999999999999994e-05 -2.0000000000000005e-05 -2.0000000000000005e-05 0 0 0 1.4942128866068395e-11 -2.9884257732136796e-12 4.4826386598205185e-12
624 2.1771829726228739e-06 5.4036026955568356e-15 1.1999999999999994e-05 -2.0000000000000005e-05 -1.2000000000000004e-05 0 0 0 2.0519466096938423e-11 -4.1038932193876846e-12 6.1558398290815269e-12
625 1.4751331921772579e-06 1.6807082351300806e-15 1.1999999999999994e-05 -2.0000000000000005e-05 -4.0000000000000024e-06 0 0 0 1.3902802798831603e-11 -2.7805605597663203e-12 4.170840839649481e-12
626 1.8557182185005519e-06 3.3460676460452178e-15 1.1999999999999994e-05 -2.0000000000000005e-05 3.9999999999999956e-06 0 0 0 1.748973216712222e-11 -3.4979464334244432e-12 5.246919650136666e-12
627 1.5384810484140655e-06 1.9066679867312237e-15 1.1999999999999994e-05 -2.0000000000000005e-05 1.1999999999999994e-05 0 0 0 1.4499842278154253e-11 -2.8999684556308504e-12 4.3499526834462758e-12
628 1.6752824148070335e-06 2.4618563701690198e-15 1.1999999999999994e-05 -2.0000000000000005e-05 1.9999999999999991e-05 0 0 0 1.5789164781137837e-11 -3.1578329562275671e-12 4.7367494343413503e-12
629 1.5089980048114637e-06 1.7991385902773526e-15 1.1999999999999994e-05 -2.0000000000000005e-05 2.7999999999999996e-05 0 0 0 1.4221971138592049e-11 -2.8443942277184097e-12 4.2665913415776142e-12
630 1.2674680798276089e-06 1.0661288964366258e-15 1.1999999999999994e-05 -2.0000000000000005e-05 3.5999999999999987e-05 0 0 0 1.1945605224737932e-11 -2.3891210449475865e-12 3.5836815674213793e-12
631 4.1852798673765031e-06 3.8385936038588571e-14 1.1999999999999994e-05 -1.2000000000000004e-05 -3.6000000000000001e-05 0 0 0 3.9445333453701862e-11 -7.8890666907403711e-12 1.1833600036110557e-11
632 3.4026884926365044e-06 2.0628383628463891e-14 1.1999999999999994e-05 -1.2000000000000004e-05 -2.8000000000000003e-05 0 0 0 3.2069583512764108e-11 -6.4139167025528202e-12 9.62087505382923e-12
633 1.9619882420170431e-06 3.9544657955121014e-15 1.1999999999999994e-05 -1.2000000000000004e-05 -2.0000000000000005e-05 0 0 0 1.8491303542650888e-11 -3.6982607085301773e-12 5.547391062795266e-12
634 2.7830278978122666e-06 1.1286292510442053e-14 1.1999999999999994e-05 -1.2000000000000004e-05 -1.2000000000000004e-05 0 0 0 2.6229419995507389e-11 -5.2458839991014784e-12 7.868825998652216e-12
635 3.0722812185166237e-06 1.518383655268769e-14 1.1999999999999994e-05 -1.2000000000000004e-05 -4.0000000000000024e-06 0 0 0 2.8955568317561167e-11 -5.7911136635122336e-12 8.6866704952683493e-12
636 2.133843782788414e-06 5.0872899141307375e-15 1.1999999999999994e-05 -1.2000000000000004e-05 3.9999999999999956e-06 0 0 0 2.0111003855749007e-11 -4.0222007711498014e-12 6.0333011567247013e-12
637 1.1917671705396575e-06 8.8628393185186405e-16 1.1999999999999994e-05 -1.2000000000000004e-05 1.1999999999999994e-05 0 0 0 1.1232140963270646e-11 -2.2464281926541296e-12 3.3696422889811936e-12
638 3.1335288231226658e-06 1.6110154439131348e-14 1.1999999999999994e-05 -1.2000000000000004e-05 1.9999999999999991e-05 0 0 0 2.9532813391602116e-11 -5.9065626783204235e-12 8.8598440174806328e-12
639 1.7345694463313866e-06 2.7325851191334661e-15 1.1999999999999994e-05 -1.2000000000000004e-05 2.7999999999999996e-05 0 0 0 1.6347931889208e-11 -3.2695863778416e-12 4.9043795667623986e-12
640 1.4850063451497453e-06 1.7146818476639292e-15 1.1999999999999994e-05 -1.2000000000000004e-05 3.5999999999999987e-05 0 0 0 1.3995855073370006e-11 -2.7991710146740018e-12 4.1987565220110016e-12
641 1.8062095603846166e-06 3.0853400196861704e-15 1.1999999999999994e-05 -4.0000000000000024e-06 -3.6000000000000001e-05 0 0 0 1.7023124057243887e-11 -3.4046248114487767e-12 5.1069372171731662e-12
642 1.7806415549444878e-06 2.9561613547496412e-15 1.1999999999999994e-05 -4.0000000000000024e-06 -2.8000000000000003e-05 0 0 0 1.6782151283070925e-11 -3.3564302566141849e-12 5.0346453849212785e-12
643 1.3982390134219878e-06 1.4313402005530726e-15 1.1999999999999994e-05 -4.0000000000000024e-06 -2.0000000000000005e-05 0 0 0 1.3178092237587472e-11 -2.635618447517494e-12 3.9534276712762416e-12
644 1.4838064349555137e-06 1.7105287296300643e-15 1.1999999999999994e-05 -4.0000000000000024e-06 -1.2000000000000004e-05 0 0 0 1.3984546186216509e-11 -2.7969092372433018e-12 4.1953638558649527e-12
645 1.4019109619995312e-06 1.4426464694653903e-15 1.1999999999999994e-05 -4.0000000000000024e-06 -4.0000000000000024e-06 0 0 0 1.3212699537614182e-11 -2.6425399075228362e-12 3.9638098612842539e-12
646 2.7577288362951366e-06 1.0981288548495967e-14 1.1999999999999994e-05 -4.0000000000000024e-06 3.9999999999999956e-06 0 0 0 2.5990981958092594e-11 -5.1981963916185187e-12 7.7972945874277776e-12
647 2.8735622213342159e-06 1.2423971269169051e-14 1.1999999999999994e-05 -4.0000000000000024e-06 1.1999999999999994e-05 0 0 0 2.7082685892530221e-11 -5.416537178506044e-12 8.1248057677590657e-12
648 1.1337655814464565e-06 7.6307711361092717e-16 1.1999999999999994e-05 -4.0000000000000024e-06 1.9999999999999991e-05 0 0 0 1.0685488864695444e-11 -2.137097772939089e-12 3.2056466594086333e-12
649 2.6005051115103119e-06 9.2081366905651971e-15 1.1999999999999994e-05 -4.0000000000000024e-06 2.7999999999999996e-05 0 0 0 2.4509183261830505e-11 -4.901836652366101e-12 7.3527549785491499e-12
650 2.5996504737424719e-06 9.1990611052031702e-15 1.1999999999999994e-05 -4.0000000000000024e-06 3.5999999999999987e-05 0 0 0 2.4501128490631725e-11 -4.9002256981263454e-12 7.3503385471895173e-12
651 3.4336929220446931e-06 2.1197418885871424e-14 1.1999999999999994e-05 3.9999999999999956e-06 -3.6000000000000001e-05 0 0 0 3.2361793375736634e-11 -6.4723586751473263e-12 9.7085380127209915e-12
652 1.4694254835805825e-06 1.6612742150223665e-15 1.1999999999999994e-05 3.9999999999999956e-06 -2.8000000000000003e-05 0 0 0 1.3849008912643161e-11 -2.769801782528632e-12 4.1547026737929484e-12
653 2.5791745543519278e-06 8.9834018821657037e-15 1.1999999999999994e-05 3.9999999999999956e-06 -2.0000000000000005e-05 0 0 0 2.4308147496833237e-11 -4.8616294993666465e-12 7.2924442490499722e-12
654 1.391882572078149e-06 1.4119080467680361e-15 1.1999999999999994e-05 3.9999999999999956e-06 -1.2000000000000004e-05 0 0 0 1.3118184189301137e-11 -2.6236368378602276e-12 3.935455256790341e-12
655 1.3694490441080422e-06 1.3447335922042099e-15 1.1999999999999994e-05 3.9999999999999956e-06 -4.0000000000000024e-06 0 0 0 1.290675316930617e-11 -2.5813506338612342e-12 3.8720259507918502e-12
656 3.2800008471717314e-06 1.8476533337636289e-14 1.1999999999999994e-05 3.9999999999999956e-06 3.9999999999999956e-06 0 0 0 3.091327969572903e-11 -6.1826559391458054e-12 9.2739839087187065e-12
657 2.2304462331333752e-06 5.8099701119914596e-15 1.1999999999999994e-05 3.9999999999999956e-06 1.1999999999999994e-05 0 0 0 2.1021460500716518e-11 -4.2042921001433034e-12 6.3064381502149548e-12
658 1.2233113338889491e-06 9.585386314308182e-16 1.1999999999999994e-05 3.9999999999999956e-06 1.9999999999999991e-05 0 0 0 1.1529437698795961e-11 -2.305887539759192e-12 3.4588313096387876e-12
659 1.8673918705941435e-06 3.4096124159034376e-15 1.1999999999999994e-05 3.9999999999999956e-06 2.7999999999999996e-05 0 0 0 1.7599753746095589e-11 -3.5199507492191175e-12 5.2799261238286754e-12
660 3.0071207501747442e-06 1.4238073306244946e-14 1.1999999999999994e-05 3.9999999999999956e-06 3.5999999999999987e-05 0 0 0 2.8341445371619213e-11 -5.668289074323843e-12 8.5024336114857637e-12
661 1.6642171104568357e-06 2.413395901398951e-15 1.1999999999999994e-05 1.1999999999999994e-05 -3.6000000000000001e-05 0 0 0 1.5684876744568884e-11 -3.1369753489137769e-12 4.7054630233706648e-12
662 1.9710911743613799e-06 4.0097635387422947e-15 1.1999999999999994e-05 1.1999999999999994e-05 -2.8000000000000003e-05 0 0 0 1.8577096658788169e-11 -3.7154193317576334e-12 5.5731289976364501e-12
663 1.512648996875863e-06 1.8122291567603565e-15 1.1999999999999994e-05 1.1999999999999994e-05 -2.0000000000000005e-05 0 0 0 1.4256380928135544e-11 -2.8512761856271086e-12 4.2769142784406628e-12
664 2.4751093625083842e-06 7.9392924751933601e-15 1.1999999999999994e-05 1.1999999999999994e-05 -1.2000000000000004e-05 0 0 0 2.3327356170262968e-11 -4.6654712340525942e-12 6.9982068510788896e-12
665 2.1560559167326498e-06 5.2478170018888879e-15 1.1999999999999994e-05 1.1999999999999994e-05 -4.0000000000000024e-06 0 0 0 2.0320348286208299e-11 -4.0640696572416596e-12 6.0961044858624886e-12
666 1.3361534621574287e-06 1.2490149777032307e-15 1.1999999999999994e-05 1.1999999999999994e-05 3.9999999999999956e-06 0 0 0 1.2592949702347036e-11 -2.5185899404694076e-12 3.7778849107041106e-12
667 2.1218629452801571e-06 5.0020797121085e-15 1.1999999999999994e-05 1.1999999999999994e-05 1.1999999999999994e-05 0 0 0 1.999808712244963e-11 -3.9996174244899264e-12 5.9994261367348884e-12
668 2.8873796437445505e-06 1.2604055107376053e-14 1.1999999999999994e-05 1.1999999999999994e-05 1.9999999999999991e-05 0 0 0 2.7212912030737783e-11 -5.4425824061475576e-12 8.1638736092213344e-12
669 1.8929975426603826e-06 3.5518022081705935e-15 1.1999999999999994e-05 1.1999999999999994e-05 2.7999999999999996e-05 0 0 0 1.7841081519856167e-11 -3.5682163039712341e-12 5.3523244559568496e-12
670 1.7349636617664525e-06 2.7344486456825208e-15 1.1999999999999994e-05 1.1999999999999994e-05 3.5999999999999987e-05 0 0 0 1.63516472821522e-11 -3.2703294564304406e-12 4.9054941846456593e-12
671 2.2742487082126026e-06 6.1590324522160875e-15 1.1999999999999994e-05 1.9999999999999991e-05 -3.6000000000000001e-05 0 0 0 2.143428910247037e-11 -4.2868578204940735e-12 6.4302867307411098e-12
672 1.3630168370867784e-06 1.3258740912153588e-15 1.1999999999999994e-05 1.9999999999999991e-05 -2.8000000000000003e-05 0 0 0 1.2846131046333057e-11 -2.5692262092666109e-12 3.8538393138999168e-12
673 3.3895062486167845e-06 2.0389563990236157e-14 1.1999999999999994e-05 1.9999999999999991e-05 -2.0000000000000005e-05 0 0 0 3.1945343789853574e-11 -6.3890687579707136e-12 9.5836031369560709e-12
674 1.723071895882096e-06 2.6786058879195919e-15 1.1999999999999994e-05 1.9999999999999991e-05 -1.2000000000000004e-05 0 0 0 1.6239570029130688e-11 -3.2479140058261383e-12 4.8718710087392061e-12
675 2.3115131902119556e-06 6.4667749941922268e-15 1.1999999999999994e-05 1.9999999999999991e-05 -4.0000000000000024e-06 0 0 0 2.1785498571137361e-11 -4.3570997142274721e-12 6.5356495713412074e-12
676 1.5457913008166343e-06 1.9339765286124822e-15 1.1999999999999994e-05 1.9999999999999991e-05 3.9999999999999956e-06 0 0 0 1.4568739783885643e-11 -2.9137479567771289e-12 4.3706219351656932e-12
677 1.8191639356085472e-06 3.1522026900062992e-15 1.1999999999999994e-05 1.9999999999999991e-05 1.1999999999999994e-05 0 0 0 1.7145216167349922e-11 -3.4290432334699853e-12 5.1435648502049759e-12
678 1.5484646046327489e-06 1.9440277946725022e-15 1.1999999999999994e-05 1.9999999999999991e-05 1.9999999999999991e-05 0 0 0 1.4593935078774201e-11 -2.9187870157548408e-12 4.3781805236322602e-12
679 2.4582302604290807e-06 7.7779707162036403e-15 1.1999999999999994e-05 1.9999999999999991e-05 2.7999999999999996e-05 0 0 0 2.3168274380988373e-11 -4.6336548761976753e-12 6.9504823142965113e-12
680 1.7957707928949942e-06 3.0321545492265043e-15 1.1999999999999994e-05 1.9999999999999991e-05 3.5999999999999987e-05 0 0 0 1.6924740991470096e-11 -3.3849481982940198e-12 5.077422297441028e-12
681 1.639825772990881e-06 2.3088288791551673e-15 1.1999999999999994e-05 2.7999999999999996e-05 -3.6000000000000001e-05 0 0 0 1.5454993804786067e-11 -3.090998760957213e-12 4.6364981414358195e-12
682 3.1023094587210712e-06 1.5633419196036051e-14 1.1999999999999994e-05 2.7999999999999996e-05 -2.8000000000000003e-05 0 0 0 2.9238577814040739e-11 -5.8477155628081461e-12 8.7715733442122199e-12
683 2.111876486126507e-06 4.9317853535645497e-15 1.1999999999999994e-05 2.7999999999999996e-05 -2.0000000000000005e-05 0 0 0 1.9903966962312184e-11 -3.9807933924624358e-12 5.9711900886936545e-12
684 1.6289296423988976e-06 2.2631096767395447e-15 1.1999999999999994e-05 2.7999999999999996e-05 -1.2000000000000004e-05 0 0 0 1.5352300193325076e-11 -3.0704600386650159e-12 4.6056900579975222e-12
685 1.4644873153326431e-06 1.6445817458878044e-15 1.1999999999999994e-05 2.7999999999999996e-05 -4.0000000000000024e-06 0 0 0 1.3802467773373413e-11 -2.7604935546746825e-12 4.1407403320120236e-12
686 1.9558058770288631e-06 3.9172010545147555e-15 1.1999999999999994e-05 2.7999999999999996e-05 3.9999999999999956e-06 0 0 0 1.8433036125364856e-11 -3.6866072250729714e-12 5.5299108376094559e-12
687 1.1613692281624624e-06 8.2018073951329512e-16 1.1999999999999994e-05 2.7999999999999996e-05 1.1999999999999994e-05 0 0 0 1.0945647105901321e-11 -2.1891294211802646e-12 3.2836941317703958e-12
688 2.1805488232749421e-06 5.4287028161754094e-15 1.1999999999999994e-05 2.7999999999999996e-05 1.9999999999999991e-05 0 0 0 2.0551188491983279e-11 -4.1102376983966565e-12 6.1653565475949832e-12
689 1.9166302430240317e-06 3.6864948578396756e-15 1.1999999999999994e-05 2.7999999999999996e-05 2.7999999999999996e-05 0 0 0 1.8063814473396952e-11 -3.612762894679391e-12 5.4191443420190855e-12
690 1.9056433782118074e-06 3.6234603437970698e-15 1.1999999999999994e-05 2.7999999999999996e-05 3.5999999999999987e-05 0 0 0 1.7960265712056749e-11 -3.5920531424113506e-12 5.3880797136170247e-12
691 1.7008022107764838e-06 2.5760842204214334e-15 1.1999999999999994e-05 3.5999999999999987e-05 -3.6000000000000001e-05 0 0 0 1.6029683191754043e-11 -3.2059366383508082e-12 4.8089049575262121e-12
692 2.028428615235147e-06 4.3699634840545714e-15 1.1999999999999994e-05 3.5999999999999987e-05 -2.8000000000000003e-05 0 0 0 1.9117489307862163e-11 -3.823497861572432e-12 5.7352467923586489e-12
693 2.022501635584677e-06 4.3317687788122027e-15 1.1999999999999994e-05 3.5999999999999987e-05 -2.0000000000000005e-05 0 0 0 1.9061628840678487e-11 -3.8123257681356968e-12 5.7184886522035452e-12
694 2.2179393985210264e-06 5.7127819664212269e-15 1.1999999999999994e-05 3.5999999999999987e-05 -1.2000000000000004e-05 0 0 0 2.0903586361503065e-11 -4.1807172723006132e-12 6.2710759084509186e-12
695 1.661219974547864e-06 2.4003803098362559e-15 1.1999999999999994e-05 3.5999999999999987e-05 -4.0000000000000024e-06 0 0 0 1.5656629404108577e-11 -3.1313258808217155e-12 4.6969888212325727e-12
696 2.2430053407120149e-06 5.9086674155991646e-15 1.1999999999999994e-05 3.5999999999999987e-05 3.9999999999999956e-06 0 0 0 2.113982730103061e-11 -4.2279654602061224e-12 6.3419481903091827e-12
697 1.2885535721373824e-06 1.1202270620828624e-15 1.1999999999999994e-05 3.5999999999999987e-05 1.1999999999999994e-05 0 0 0 1.2144331307951058e-11 -2.4288662615902122e-12 3.6432993923853167e-12
698 1.8208115899915575e-06 3.1607754953070859e-15 1.1999999999999994e-05 3.5999999999999987e-05 1.9999999999999991e-05 0 0 0 1.7160744944065885e-11 -3.4321489888131774e-12 5.1482234832197649e-12
699 1.7319123357026217e-06 2.7200465652212293e-15 1.1999999999999994e-05 3.5999999999999987e-05 2.7999999999999996e-05 0 0 0 1.6322889211514689e-11 -3.2645778423029384e-12 4.8968667634544065e-12
700 2.1046329189534079e-06 4.8812123262282863e-15 1.1999999999999994e-05 3.5999999999999987e-05 3.5999999999999987e-05 0 0 0 1.9835697950061805e-11 -3.9671395900123622e-12 5.9507093850185412e-12
701 1.304071540293307e-06 1.1611888943550293e-15 1.9999999999999991e-05 -3.6000000000000001e-05 -3.6000000000000001e-05 0 0 0 1.2290584712222938e-11 -2.4581169424445879e-12 3.6871754136668811e-12
702 1.9651916255022154e-06 3.9738670807052343e-15 1.9999999999999991e-05 -3.6000000000000001e-05 -2.8000000000000003e-05 0 0 0 1.8521494720721832e-11 -3.7042989441443667e-12 5.5564484162165493e-12
703 2.3092674763863667e-06 6.4479452230537629e-15 1.9999999999999991e-05 -3.6000000000000001e-05 -2.0000000000000005e-05 0 0 0 2.1764333216967754e-11 -4.3528666433935511e-12 6.529299965090325e-12
704 1.3298034100423788e-06 1.2312916921208786e-15 1.9999999999999991e-05 -3.6000000000000001e-05 -1.2000000000000004e-05 0 0 0 1.2533101871123378e-11 -2.5066203742246752e-12 3.7599305613370132e-12
705 3.0411681706883021e-06 1.4727191418643931e-14 1.9999999999999991e-05 -3.6000000000000001e-05 -4.0000000000000024e-06 0 0 0 2.8662334750096441e-11 -5.7324669500192877e-12 8.5987004250289335e-12
706 2.7484154162391426e-06 1.0870405626741733e-14 1.9999999999999991e-05 -3.6000000000000001e-05 3.9999999999999956e-06 0 0 0 2.5903205042009473e-11 -5.1806410084018942e-12 7.7709615126028417e-12
707 2.1210523256675472e-06 4.9963490379373719e-15 1.9999999999999991e-05 -3.6000000000000001e-05 1.1999999999999994e-05 0 0 0 1.9990447212590135e-11 -3.9980894425180266e-12 5.9971341637770399e-12
708 2.2708033209854175e-06 6.131082843871221e-15 1.9999999999999991e-05 -3.6000000000000001e-05 1.9999999999999991e-05 0 0 0 2.1401817092865277e-11 -4.2803634185730555e-12 6.4205451278595829e-12
709 2.1567694117730882e-06 5.2530286440292036e-15 1.9999999999999991e-05 -3.6000000000000001e-05 2.7999999999999996e-05 0 0 0 2.0327072818540539e-11 -4.0654145637081077e-12 6.0981218455621616e-12
710 9.6770541122138234e-07 4.7449116571507039e-16 1.9999999999999991e-05 -3.6000000000000001e-05 3.5999999999999987e-05 0 0 0 9.1204086321965545e-12 -1.8240817264393106e-12 2.7361225896589658e-12
711 1.5188207760656581e-06 1.8345020866440348e-15 1.9999999999999991e-05 -2.8000000000000003e-05 -3.6000000000000001e-05 0 0 0 1.4314548576622259e-11 -2.8629097153244524e-12 4.2943645729866776e-12
712 1.2117713290569018e-06 9.3166684464785583e-16 1.9999999999999991e-05 -2.8000000000000003e-05 -2.8000000000000003e-05 0 0 0 1.1420675715587708e-11 -2.2841351431175423e-12 3.4262027146763122e-12
713 3.0006955320290632e-06 1.4147002073425962e-14 1.9999999999999991e-05 -2.8000000000000003e-05 -2.0000000000000005e-05 0 0 0 2.8280889117246662e-11 -5.6561778234493338e-12 8.4842667351739979e-12
714 2.4430530453371316e-06 7.6347938093594067e-15 1.9999999999999991e-05 -2.8000000000000003e-05 -1.2000000000000004e-05 0 0 0 2.3025232498683915e-11 -4.6050464997367829e-12 6.9075697496051736e-12
715 1.4223031580655323e-06 1.5065208455667409e-15 1.9999999999999991e-05 -2.8000000000000003e-05 -4.0000000000000024e-06 0 0 0 1.3404891457668717e-11 -2.680978291533743e-12 4.0214674373006151e-12
716 2.6283930704335917e-06 9.5075706852478063e-15 1.9999999999999991e-05 -2.8000000000000003e-05 3.9999999999999956e-06 0 0 0 2.4772021082461476e-11 -4.9544042164922947e-12 7.4316063247384425e-12
717 2.1502042794413479e-06 5.2052043966260863e-15 1.9999999999999991e-05 -2.8000000000000003e-05 1.1999999999999994e-05 0 0 0 2.0265197904030821e-11 -4.0530395808061633e-12 6.0795593712092454e-12
718 1.7382530868345195e-06 2.7500313843222367e-15 1.9999999999999991e-05 -2.8000000000000003e-05 1.9999999999999991e-05 0 0 0 1.6382649383037321e-11 -3.2765298766074639e-12 4.9147948149111958e-12
719 2.1368488931528329e-06 5.1088136187885562e-15 1.9999999999999991e-05 -2.8000000000000003e-05 2.7999999999999996e-05 0 0 0 2.0139326353681262e-11 -4.0278652707362523e-12 6.041797906104378e-12
720 2.6089727236126426e-06 9.2983788776623121e-15 1.9999999999999991e-05 -2.8000000000000003e-05 3.5999999999999987e-05 0 0 0 2.4588988625752895e-11 -4.9177977251505786e-12 7.3766965877258683e-12
721 1.9846919991556632e-06 4.0933415053145513e-15 1.9999999999999991e-05 -2.0000000000000005e-05 -3.6000000000000001e-05 0 0 0 1.8705281412557616e-11 -3.7410562825115234e-12 5.6115844237672843e-12
722 3.1748426072791433e-06 1.6755802101963012e-14 1.9999999999999991e-05 -2.0000000000000005e-05 -2.8000000000000003e-05 0 0 0 2.9922186633996064e-11 -5.9844373267992139e-12 8.9766559901988173e-12
723 2.0215559391597705e-06 4.3256951772127842e-15 1.9999999999999991e-05 -2.0000000000000005e-05 -2.0000000000000005e-05 0 0 0 1.905271586185545e-11 -3.8105431723710902e-12 5.7158147585566341e-12
724 1.4852011617082977e-06 1.7153567786022512e-15 1.9999999999999991e-05 -2.0000000000000005e-05 -1.2000000000000004e-05 0 0 0 1.3997691176177444e-11 -2.7995382352354883e-12 4.1993073528532326e-12
725 1.7264327461655218e-06 2.6943103352317513e-15 1.9999999999999991e-05 -2.0000000000000005e-05 -4.0000000000000024e-06 0 0 0 1.6271245296811365e-11 -3.254249059362273e-12 4.8813735890434103e-12
726 1.3724831158653412e-06 1.3536913501242644e-15 1.9999999999999991e-05 -2.0000000000000005e-05 3.9999999999999956e-06 0 0 0 1.2935348621935755e-11 -2.5870697243871505e-12 3.8806045865807269e-12
727 1.7125399032941819e-06 2.6297878902723409e-15 1.9999999999999991e-05 -2.0000000000000005e-05 1.1999999999999994e-05 0 0 0 1.6140308337505127e-11 -3.2280616675010254e-12 4.8420925012515378e-12
728 2.0104875340030628e-06 4.2550314669712038e-15 1.9999999999999991e-05 -2.0000000000000005e-05 1.9999999999999991e-05 0 0 0 1.8948398600873644e-11 -3.789679720174729e-12 5.6845195802620932e-12
729 2.2839342275405464e-06 6.238057897808463e-15 1.9999999999999991e-05 -2.0000000000000005e-05 2.7999999999999996e-05 0 0 0 2.1525572971570981e-11 -4.3051145943141954e-12 6.4576718914712935e-12
730 1.3878713281762259e-06 1.3997363267594438e-15 1.9999999999999991e-05 -2.0000000000000005e-05 3.5999999999999987e-05 0 0 0 1.3080379106179021e-11 -2.6160758212358039e-12 3.9241137318537052e-12
731 1.8483870084349709e-06 3.3065671319479048e-15 1.9999999999999991e-05 -1.2000000000000004e-05 -3.6000000000000001e-05 0 0 0 1.742063714007036e-11 -3.4841274280140714e-12 5.2261911420211073e-12
732 2.3297675817738922e-06 6.6211955710094047e-15 1.9999999999999991e-05 -1.2000000000000004e-05 -2.8000000000000003e-05 0 0 0 2.195754215841755e-11 -4.3915084316835099e-12 6.5872626475252645e-12
733 1.3073110535740907e-06 1.1698641220673071e-15 1.9999999999999991e-05 -1.2000000000000004e-05 -2.0000000000000005e-05 0 0 0 1.2321116405595288e-11 -2.4642232811190573e-12 3.6963349216785854e-12
734 1.4013924071994165e-06 1.441046193998227e-15 1.9999999999999991e-05 -1.2000000000000004e-05 -1.2000000000000004e-05 0 0 0 1.3207812273762609e-11 -2.6415624547525223e-12 3.9623436821287822e-12
735 1.6948620110757885e-06 2.5491867863436491e-15 1.9999999999999991e-05 -1.2000000000000004e-05 -4.0000000000000024e-06 0 0 0 1.5973698128532361e-11 -3.1947396257064724e-12 4.7921094385597076e-12
736 1.3545540434673034e-06 1.301330573965364e-15 1.9999999999999991e-05 -1.2000000000000004e-05 3.9999999999999956e-06 0 0 0 1.2766371095541689e-11 -2.5532742191083379e-12 3.8299113286625063e-12
737 2.0638496060150965e-06 4.6029129616440579e-15 1.9999999999999991e-05 -1.2000000000000004e-05 1.1999999999999994e-05 0 0 0 1.9451324281113651e-11 -3.8902648562227303e-12 5.8353972843340942e-12
738 1.954898747496695e-06 3.9117530277904787e-15 1.9999999999999991e-05 -1.2000000000000004e-05 1.9999999999999991e-05 0 0 0 1.8424486630942514e-11 -3.6848973261885037e-12 5.5273459892827535e-12
739 1.8661665943780488e-06 3.4029052381258582e-15 1.9999999999999991e-05 -1.2000000000000004e-05 2.7999999999999996e-05 0 0 0 1.7588205789818285e-11 -3.5176411579636577e-12 5.2764617369454846e-12
740 3.7458719314903511e-06 2.7520568284485123e-14 1.9999999999999991e-05 -1.2000000000000004e-05 3.5999999999999987e-05 0 0 0 3.5304011223774889e-11 -7.0608022447549799e-12 1.0591203367132467e-11
741 1.3837732614664436e-06 1.3873735990199264e-15 1.9999999999999991e-05 -4.0000000000000024e-06 -3.6000000000000001e-05 0 0 0 1.3041755737370902e-11 -2.6083511474741803e-12 3.9125267212112711e-12
742 5.1643339713431283e-06 7.2117652528528697e-14 1.9999999999999991e-05 -4.0000000000000024e-06 -2.8000000000000003e-05 0 0 0 4.867270099516732e-11 -9.734540199033464e-12 1.4601810298550199e-11
743 2.9237723126273556e-06 1.308667357161951e-14 1.9999999999999991e-05 -4.0000000000000024e-06 -2.0000000000000005e-05 0 0 0 2.755590485435802e-11 -5.5111809708716035e-12 8.2667714563074072e-12
744 3.5853765030712054e-06 2.413253397433209e-14 1.9999999999999991e-05 -4.0000000000000024e-06 -1.2000000000000004e-05 0 0 0 3.3791377447205886e-11 -6.7582754894411776e-12 1.0137413234161766e-11
745 4.0473549028092499e-06 3.4714625719138007e-14 1.9999999999999991e-05 -4.0000000000000024e-06 -4.0000000000000024e-06 0 0 0 3.814542128740851e-11 -7.6290842574817017e-12 1.1443626386222552e-11
746 2.0970954630058784e-06 4.8289557337481222e-15 1.9999999999999991e-05 -4.0000000000000024e-06 3.9999999999999956e-06 0 0 0 1.9764659101367261e-11 -3.9529318202734521e-12 5.9293977304101777e-12
747 3.1899758087314793e-06 1.6996550581820391e-14 1.9999999999999991e-05 -4.0000000000000024e-06 1.1999999999999994e-05 0 0 0 3.0064813697519919e-11 -6.0129627395039842e-12 9.0194441092559755e-12
748 2.0336639494731569e-06 4.4038872588058148e-15 1.9999999999999991e-05 -4.0000000000000024e-06 1.9999999999999991e-05 0 0 0 1.9166831170605823e-11 -3.8333662341211648e-12 5.7500493511817468e-12
749 2.3127393042766907e-06 6.4770711202036207e-15 1.9999999999999991e-05 -4.0000000000000024e-06 2.7999999999999996e-05 0 0 0 2.1797054423952062e-11 -4.359410884790412e-12 6.5391163271856176e-12
750 2.2762666408232701e-06 6.1754416647522098e-15 1.9999999999999991e-05 -4.0000000000000024e-06 3.5999999999999987e-05 0 0 0 2.1453307669265704e-11 -4.2906615338531415e-12 6.4359923007797107e-12
751 3.1873161958766621e-06 1.6954073865090038e-14 1.9999999999999991e-05 3.9999999999999956e-06 -3.6000000000000001e-05 0 0 0 3.0039747436901661e-11 -6.0079494873803324e-12 9.0119242310705006e-12
752 2.3132215431957816e-06 6.4811236484438401e-15 1.9999999999999991e-05 3.9999999999999956e-06 -2.8000000000000003e-05 0 0 0 2.1801599418688534e-11 -4.3603198837377064e-12 6.5404798256065608e-12
753 2.8177338040905524e-06 1.1713818995210639e-14 1.9999999999999991e-05 3.9999999999999956e-06 -2.0000000000000005e-05 0 0 0 2.6556515456107504e-11 -5.3113030912215005e-12 7.9669546368322515e-12
754 1.5136919503141557e-06 1.8159802730760084e-15 1.9999999999999991e-05 3.9999999999999956e-06 -1.2000000000000004e-05 0 0 0 1.4266210532714873e-11 -2.8532421065429749e-12 4.2798631598144613e-12
755 2.1443060030997655e-06 5.1624862336242967e-15 1.9999999999999991e-05 3.9999999999999956e-06 -4.0000000000000024e-06 0 0 0 2.0209607959160145e-11 -4.0419215918320292e-12 6.0628823877480434e-12
756 3.8139835011969021e-06 2.9049258574190858e-14 1.9999999999999991e-05 3.9999999999999956e-06 3.9999999999999956e-06 0 0 0 3.59459476448186e-11 -7.18918952896372e-12 1.0783784293445578e-11
757 2.1192337400668004e-06 4.9835084776602937e-15 1.9999999999999991e-05 3.9999999999999956e-06 1.1999999999999994e-05 0 0 0 1.9973307447100442e-11 -3.9946614894200885e-12 5.9919922341301327e-12
758 3.1466613024537707e-06 1.6313555319382564e-14 1.9999999999999991e-05 3.9999999999999956e-06 1.9999999999999991e-05 0 0 0 2.965658409337217e-11 -5.9313168186744343e-12 8.8969752280116507e-12
759 1.7728758691110609e-06 2.9176527935373997e-15 1.9999999999999991e-05 3.9999999999999956e-06 2.7999999999999996e-05 0 0 0 1.6708961418377786e-11 -3.3417922836755572e-12 5.0126884255133351e-12
760 2.1733637478719812e-06 5.3752154740083007e-15 1.9999999999999991e-05 3.9999999999999956e-06 3.5999999999999987e-05 0 0 0 2.0483470751678988e-11 -4.0966941503357977e-12 6.1450412255036954e-12
761 1.5933275506606368e-06 2.1179408134243171e-15 1.9999999999999991e-05 1.1999999999999994e-05 -3.6000000000000001e-05 0 0 0 1.5016758383753029e-11 -3.0033516767506053e-12 4.5050275151259083e-12
762 1.2964779682977502e-06 1.1410220713241693e-15 1.9999999999999991e-05 1.1999999999999994e-05 -2.8000000000000003e-05 0 0 0 1.2219016982235699e-11 -2.4438033964471394e-12 3.6657050946707089e-12
763 1.9436641382369865e-06 3.8446984938818029e-15 1.9999999999999991e-05 1.1999999999999994e-05 -2.0000000000000005e-05 0 0 0 1.8318602933193759e-11 -3.6637205866387519e-12 5.4955808799581275e-12
764 1.5447230637113653e-06 1.9299698076780744e-15 1.9999999999999991e-05 1.1999999999999994e-05 -1.2000000000000004e-05 0 0 0 1.4558671886359031e-11 -2.9117343772718066e-12 4.3676015659077084e-12
765 1.2302394635573504e-06 9.7491686857908268e-16 1.9999999999999991e-05 1.1999999999999994e-05 -4.0000000000000024e-06 0 0 0 1.1594733782604062e-11 -2.3189467565208123e-12 3.4784201347812178e-12
766 1.9766749789125325e-06 4.043937334707576e-15 1.9999999999999991e-05 1.1999999999999994e-05 3.9999999999999956e-06 0 0 0 1.8629722776859111e-11 -3.7259445553718228e-12 5.5889168330577329e-12
767 3.5868870127143599e-06 2.4163047744407134e-14 1.9999999999999991e-05 1.1999999999999994e-05 1.1999999999999994e-05 0 0 0 3.3805613665200216e-11 -6.7611227330400442e-12 1.0141684099560064e-11
768 1.6505711023747137e-06 2.3545143105802633e-15 1.9999999999999991e-05 1.1999999999999994e-05 1.9999999999999991e-05 0 0 0 1.5556266148344024e-11 -3.1112532296688052e-12 4.6668798445032066e-12
769 2.5522726467905386e-06 8.7052213908038024e-15 1.9999999999999991e-05 1.1999999999999994e-05 2.7999999999999996e-05 0 0 0 2.4054602991345999e-11 -4.8109205982692003e-12 7.2163808974037992e-12
770 3.8870512826900893e-06 3.0751013471356567e-14 1.9999999999999991e-05 1.1999999999999994e-05 3.5999999999999987e-05 0 0 0 3.6634595261477902e-11 -7.326919052295582e-12 1.0990378578443371e-11
771 1.3893418536852686e-06 1.4041903340619055e-15 1.9999999999999991e-05 1.9999999999999991e-05 -3.6000000000000001e-05 0 0 0 1.3094238482587395e-11 -2.6188476965174785e-12 3.9282715447762182e-12
772 2.2928994322747421e-06 6.3118060104647687e-15 1.9999999999999991e-05 1.9999999999999991e-05 -2.8000000000000003e-05 0 0 0 2.1610068035563613e-11 -4.3220136071127219e-12 6.4830204106690832e-12
773 3.9336971014784954e-06 3.1871416782186856e-14 1.9999999999999991e-05 1.9999999999999991e-05 -2.0000000000000005e-05 0 0 0 3.7074221746356913e-11 -7.4148443492713815e-12 1.1122266523907073e-11
774 1.2992586244007644e-06 1.1483795425407958e-15 1.9999999999999991e-05 1.9999999999999991e-05 -1.2000000000000004e-05 0 0 0 1.2245224048591864e-11 -2.4490448097183735e-12 3.6735672145775595e-12
775 1.7778811272412356e-06 2.9424343486438992e-15 1.9999999999999991e-05 1.9999999999999991e-05 -4.0000000000000024e-06 0 0 0 1.6756134864891017e-11 -3.3512269729782037e-12 5.0268404594673045e-12
776 2.1099334140622309e-06 4.9181851260927203e-15 1.9999999999999991e-05 1.9999999999999991e-05 3.9999999999999956e-06 0 0 0 1.9885653939544607e-11 -3.9771307879089218e-12 5.9656961818633818e-12
777 2.6392224571641432e-06 9.6255735359546638e-15 1.9999999999999991e-05 1.9999999999999991e-05 1.1999999999999994e-05 0 0 0 2.4874085647848227e-11 -4.9748171295696458e-12 7.4622256943544662e-12
778 2.5792280145307322e-06 8.983960507666275e-15 1.9999999999999991e-05 1.9999999999999991e-05 1.9999999999999991e-05 0 0 0 2.4308651347148211e-11 -4.8617302694296424e-12 7.2925954041444612e-12
779 2.3230600929849828e-06 6.5641720436964972e-15 1.9999999999999991e-05 1.9999999999999991e-05 2.7999999999999996e-05 0 0 0 2.1894325565907729e-11 -4.3788651131815466e-12 6.5682976697723188e-12
780 1.2655588228375906e-06 1.0613182442092746e-15 1.9999999999999991e-05 1.9999999999999991e-05 3.5999999999999987e-05 0 0 0 1.1927610901536965e-11 -2.3855221803073933e-12 3.578283270461089e-12
781 1.7958002912768503e-06 3.0323039755157979e-15 1.9999999999999991e-05 2.7999999999999996e-05 -3.6000000000000001e-05 0 0 0 1.6925019007169291e-11 -3.3850038014338578e-12 5.0775057021507865e-12
782 2.6954174046673083e-06 1.0253607933281648e-14 1.9999999999999991e-05 2.7999999999999996e-05 -2.8000000000000003e-05 0 0 0 2.5403710550582647e-11 -5.0807421101165292e-12 7.621113165174793e-12
783 1.3628677433088584e-06 1.325439046065125e-15 1.9999999999999991e-05 2.7999999999999996e-05 -2.0000000000000005e-05 0 0 0 1.2844725870580829e-11 -2.5689451741161655e-12 3.8534177611742483e-12
784 2.6721658409094417e-06 9.9905373149296657e-15 1.9999999999999991e-05 2.7999999999999996e-05 -1.2000000000000004e-05 0 0 0 2.5184569724924081e-11 -5.0369139449848169e-12 7.5553709174772238e-12
785 3.6679755477549264e-06 2.5839131834848661e-14 1.9999999999999991e-05 2.7999999999999996e-05 -4.0000000000000024e-06 0 0 0 3.4569855103121625e-11 -6.9139710206243253e-12 1.0370956530936486e-11
786 2.0763496722543141e-06 4.6870555776813493e-15 1.9999999999999991e-05 2.7999999999999996e-05 3.9999999999999956e-06 0 0 0 1.9569134629913185e-11 -3.9138269259826372e-12 5.8707403889739546e-12
787 2.1464363506322502e-06 5.177888167457774e-15 1.9999999999999991e-05 2.7999999999999996e-05 1.1999999999999994e-05 0 0 0 2.0229686011633087e-11 -4.045937202326618e-12 6.0689058034899257e-12
788 2.2598929582142344e-06 6.0431340646164488e-15 1.9999999999999991e-05 2.7999999999999996e-05 1.9999999999999991e-05 0 0 0 2.1298989346275432e-11 -4.2597978692550873e-12 6.3896968038826286e-12
789 1.88089428004097e-06 3.4841093696133925e-15 1.9999999999999991e-05 2.7999999999999996e-05 2.7999999999999996e-05 0 0 0 1.7727010957067323e-11 -3.5454021914134649e-12 5.3181032871201965e-12
790 2.2325709540221807e-06 5.826589649146514e-15 1.9999999999999991e-05 2.7999999999999996e-05 3.5999999999999987e-05 0 0 0 2.1041485523322116e-11 -4.2082971046644239e-12 6.3124456569966347e-12
791 2.3664648649255467e-06 6.9390306351336908e-15 1.9999999999999991e-05 3.5999999999999987e-05 -3.6000000000000001e-05 0 0 0 2.2303405903885379e-11 -4.4606811807770752e-12 6.6910217711656133e-12
792 1.3736722927801664e-06 1.3572130845641883e-15 1.9999999999999991e-05 3.5999999999999987e-05 -2.8000000000000003e-05 0 0 0 1.2946556350314054e-11 -2.5893112700628105e-12 3.8839669050942155e-12
793 1.5176148565182105e-06 1.8301358587288628e-15 1.9999999999999991e-05 3.5999999999999987e-05 -2.0000000000000005e-05 0 0 0 1.4303183052649016e-11 -2.8606366105298027e-12 4.2909549157947044e-12
794 2.5811734846761791e-06 9.0043052157330331e-15 1.9999999999999991e-05 3.5999999999999987e-05 -1.2000000000000004e-05 0 0 0 2.4326986971298355e-11 -4.8653973942596719e-12 7.298096091389505e-12
795 1.9677397406183061e-06 3.9893449696352853e-15 1.9999999999999991e-05 3.5999999999999987e-05 -4.0000000000000024e-06 0 0 0 1.8545510139909467e-11 -3.7091020279818936e-12 5.5636530419728392e-12
796 2.1939599190279178e-06 5.5294850748293638e-15 1.9999999999999991e-05 3.5999999999999987e-05 3.9999999999999956e-06 0 0 0 2.0677585091665692e-11 -4.1355170183331384e-12 6.2032755274997067e-12
797 2.1318763997640296e-06 5.0732315896290274e-15 1.9999999999999991e-05 3.5999999999999987e-05 1.1999999999999994e-05 0 0 0 2.0092461707580397e-11 -4.0184923415160801e-12 6.0277385122741186e-12
798 3.2925801085994709e-06 1.8689929913790084e-14 1.9999999999999991e-05 3.5999999999999987e-05 1.9999999999999991e-05 0 0 0 3.1031836441595949e-11 -6.2063672883191899e-12 9.309550932478782e-12
799 1.4026405804590708e-06 1.4449000991817245e-15 1.9999999999999991e-05 3.5999999999999987e-05 2.7999999999999996e-05 0 0 0 1.3219576029591422e-11 -2.6439152059182846e-12 3.9658728088774259e-12
800 1.5140389380783372e-06 1.8172294058149456e-15 1.9999999999999991e-05 3.5999999999999987e-05 3.5999999999999987e-05 0 0 0 1.4269480815347388e-11 -2.8538961630694783e-12 4.2808442446042158e-12
801 1.5288200410852427e-06 1.8709738772686774e-15 2.7999999999999996e-05 -3.6000000000000001e-05 -3.6000000000000001e-05 0 0 0 1.4408789429202732e-11 -2.8817578858405469e-12 4.3226368287608191e-12
802 3.2520679719099562e-06 1.8008496885973207e-14 2.7999999999999996e-05 -3.6000000000000001e-05 -2.8000000000000003e-05 0 0 0 3.0650018548580925e-11 -6.1300037097161867e-12 9.195005564574278e-12
803 1.6807215555417589e-06 2.4859130392383422e-15 2.7999999999999996e-05 -3.6000000000000001e-05 -2.0000000000000005e-05 0 0 0 1.5840427474859996e-11 -3.1680854949719999e-12 4.7521282424579987e-12
804 1.4770564400746289e-06 1.6872906267160339e-15 2.7999999999999996e-05 -3.6000000000000001e-05 -1.2000000000000004e-05 0 0 0 1.3920928983227839e-11 -2.7841857966455678e-12 4.1762786949683517e-12
805 1.9087313532327733e-06 3.641103670360956e-15 2.7999999999999996e-05 -3.6000000000000001e-05 -4.0000000000000024e-06 0 0 0 1.7989369190977755e-11 -3.5978738381955503e-12 5.3968107572933269e-12
806 1.3128421195886192e-06 1.184775670183015e-15 2.7999999999999996e-05 -3.6000000000000001e-05 3.9999999999999956e-06 0 0 0 1.2373245474668577e-11 -2.4746490949337151e-12 3.7119736424005734e-12
807 2.0344618424395657e-06 4.4090727902825368e-15 2.7999999999999996e-05 -3.6000000000000001e-05 1.1999999999999994e-05 0 0 0 1.9174351134650684e-11 -3.8348702269301362e-12 5.7523053403952043e-12
808 3.0433684673656951e-06 1.4759180087537721e-14 2.7999999999999996e-05 -3.6000000000000001e-05 1.9999999999999991e-05 0 0 0 2.8683072057728687e-11 -5.7366144115457367e-12 8.6049216173186051e-12
809 1.8180168178479896e-06 3.1462433567500365e-15 2.7999999999999996e-05 -3.6000000000000001e-05 2.7999999999999996e-05 0 0 0 1.7134404837161809e-11 -3.4268809674323619e-12 5.1403214511485428e-12
810 1.9175171357782359e-06 3.6916148418561226e-15 2.7999999999999996e-05 -3.6000000000000001e-05 3.5999999999999987e-05 0 0 0 1.8072173240680341e-11 -3.6144346481360683e-12 5.4216519722041024e-12
811 1.7656660773714692e-06 2.8822015149573111e-15 2.7999999999999996e-05 -2.8000000000000003e-05 -3.6000000000000001e-05 0 0 0 1.6641010732088745e-11 -3.3282021464177501e-12 4.9923032196266237e-12
812 1.9834688616906971e-06 4.0857781638720277e-15 2.7999999999999996e-05 -2.8000000000000003e-05 -2.8000000000000003e-05 0 0 0 1.8693753613534811e-11 -3.7387507227069633e-12 5.6081260840604433e-12
813 2.4524453331262024e-06 7.723188388412824e-15 2.7999999999999996e-05 -2.8000000000000003e-05 -2.0000000000000005e-05 0 0 0 2.3113752725639552e-11 -4.6227505451279108e-12 6.934125817691865e-12
814 2.2103517568280314e-06 5.6543514856088426e-15 2.7999999999999996e-05 -2.8000000000000003e-05 -1.2000000000000004e-05 0 0 0 2.0832074523300708e-11 -4.1664149046601411e-12 6.2496223569902121e-12
815 1.3347497315958013e-06 1.2450825569822055e-15 2.7999999999999996e-05 -2.8000000000000003e-05 -4.0000000000000024e-06 0 0 0 1.2579719853486952e-11 -2.5159439706973903e-12 3.7739159560460859e-12
816 1.9814617757572224e-06 4.073387428600699e-15 2.7999999999999996e-05 -2.8000000000000003e-05 3.9999999999999956e-06 0 0 0 1.8674837274263628e-11 -3.7349674548527257e-12 5.6024511822790893e-12
817 1.9066302671711954e-06 3.6290927804942595e-15 2.7999999999999996e-05 -2.8000000000000003e-05 1.1999999999999994e-05 0 0 0 1.7969566921370918e-11 -3.5939133842741829e-12 5.3908700764112744e-12
818 1.0113919966687816e-06 5.4169791038113636e-16 2.7999999999999996e-05 -2.8000000000000003e-05 1.9999999999999991e-05 0 0 0 9.5321449999024709e-12 -1.906428999980494e-12 2.859643499970741e-12
819 1.8394593403275972e-06 3.2588862360240384e-15 2.7999999999999996e-05 -2.8000000000000003e-05 2.7999999999999996e-05 0 0 0 1.733649585045092e-11 -3.4672991700901838e-12 5.2009487551352758e-12
820 1.2636395705062411e-06 1.0564970143189697e-15 2.7999999999999996e-05 -2.8000000000000003e-05 3.5999999999999987e-05 0 0 0 1.1909522374463306e-11 -2.3819044748926607e-12 3.5728567123389913e-12
821 1.2785328856558882e-06 1.0942947907275682e-15 2.7999999999999996e-05 -2.0000000000000005e-05 -3.6000000000000001e-05 0 0 0 1.2049888562848493e-11 -2.4099777125696989e-12 3.6149665688545476e-12
822 2.3986998544880478e-06 7.2264724058402406e-15 2.7999999999999996e-05 -2.0000000000000005e-05 -2.8000000000000003e-05 0 0 0 2.2607213523079671e-11 -4.5214427046159353e-12 6.7821640569239009e-12
823 1.6153672623089776e-06 2.2070514299203976e-15 2.7999999999999996e-05 -2.0000000000000005e-05 -2.0000000000000005e-05 0 0 0 1.5224477772358022e-11 -3.0448955544716046e-12 4.5673433317074061e-12
824 1.4565881128561534e-06 1.6181132213070715e-15 2.7999999999999996e-05 -2.0000000000000005e-05 -1.2000000000000004e-05 0 0 0 1.3728019543965336e-11 -2.745603908793067e-12 4.1184058631896009e-12
825 1.3046395155376114e-06 1.1627067877008123e-15 2.7999999999999996e-05 -2.0000000000000005e-05 -4.0000000000000024e-06 0 0 0 1.229593775278772e-11 -2.4591875505575439e-12 3.6887813258363167e-12
826 1.3842983887273509e-06 1.3889536791442357e-15 2.7999999999999996e-05 -2.0000000000000005e-05 3.9999999999999956e-06 0 0 0 1.30467049452061e-11 -2.6093409890412197e-12 3.9140114835618305e-12
827 3.1050532154090046e-06 1.567493560209409e-14 2.7999999999999996e-05 -2.0000000000000005e-05 1.1999999999999994e-05 0 0 0 2.9264437111602885e-11 -5.852887422320576e-12 8.7793311334808649e-12
828 2.7881742724032407e-06 1.1349020192650459e-14 2.7999999999999996e-05 -2.0000000000000005e-05 1.9999999999999991e-05 0 0 0 2.6277923433330266e-11 -5.2555846866660525e-12 7.8833770299990787e-12
829 2.7873542870381996e-06 1.1339010100406889e-14 2.7999999999999996e-05 -2.0000000000000005e-05 2.7999999999999996e-05 0 0 0 2.6270195253333672e-11 -5.2540390506667334e-12 7.8810585760001009e-12
830 3.6754167969383316e-06 2.599671120022696e-14 2.7999999999999996e-05 -2.0000000000000005e-05 3.5999999999999987e-05 0 0 0 3.4639987224425973e-11 -6.9279974448851946e-12 1.0391996167327792e-11
831 2.6502989760640225e-06 9.7472752166479085e-15 2.7999999999999996e-05 -1.2000000000000004e-05 -3.6000000000000001e-05 0 0 0 2.4978479379057853e-11 -4.9956958758115699e-12 7.4935438137173544e-12
832 2.7703131274180834e-06 1.1132307710060992e-14 2.7999999999999996e-05 -1.2000000000000004e-05 -2.8000000000000003e-05 0 0 0 2.6109586107720045e-11 -5.2219172215440087e-12 7.8328758323160123e-12
833 1.1843894090261679e-06 8.699257133462175e-16 2.7999999999999996e-05 -1.2000000000000004e-05 -2.0000000000000005e-05 0 0 0 1.1162607199158497e-11 -2.2325214398316992e-12 3.3487821597475487e-12
834 1.3884087573420199e-06 1.4013630275524038e-15 2.7999999999999996e-05 -1.2000000000000004e-05 -1.2000000000000004e-05 0 0 0 1.308544425673627e-11 -2.6170888513472545e-12 3.9256332770208806e-12
835 2.0931134796090258e-06 4.8015001412662271e-15 2.7999999999999996e-05 -1.2000000000000004e-05 -4.0000000000000024e-06 0 0 0 1.9727129792008453e-11 -3.9454259584016906e-12 5.9181389376025351e-12
836 1.5709022145098538e-06 2.0297664888473962e-15 2.7999999999999996e-05 -1.2000000000000004e-05 3.9999999999999956e-06 0 0 0 1.4805404569836282e-11 -2.9610809139672567e-12 4.4416213709508841e-12
837 2.291207266566436e-06 6.2978419336053951e-15 2.7999999999999996e-05 -1.2000000000000004e-05 1.1999999999999994e-05 0 0 0 2.1594119749489999e-11 -4.3188239498980005e-12 6.4782359248469992e-12
838 1.5687490315666619e-06 2.0214315253375054e-15 2.7999999999999996e-05 -1.2000000000000004e-05 1.9999999999999991e-05 0 0 0 1.4785111298687781e-11 -2.9570222597375572e-12 4.4355333896063348e-12
839 1.6202994315695917e-06 2.2273294594586824e-15 2.7999999999999996e-05 -1.2000000000000004e-05 2.7999999999999996e-05 0 0 0 1.5270962372504241e-11 -3.0541924745008488e-12 4.5812887117512721e-12
840 1.6586175643642543e-06 2.3891169129594095e-15 2.7999999999999996e-05 -1.2000000000000004e-05 3.5999999999999987e-05 0 0 0 1.5632102265965212e-11 -3.126420453193043e-12 4.6896306797895636e-12
841 3.9656006225754603e-06 3.2653184674805906e-14 2.7999999999999996e-05 -4.0000000000000024e-06 -3.6000000000000001e-05 0 0 0 3.7374905348862535e-11 -7.474981069772506e-12 1.121247160465876e-11
842 2.2937733694500255e-06 6.3190259843173856e-15 2.7999999999999996e-05 -4.0000000000000024e-06 -2.8000000000000003e-05 0 0 0 2.1618304699392319e-11 -4.3236609398784633e-12 6.4854914098176961e-12
843 2.8954482219294083e-06 1.2710014072839479e-14 2.7999999999999996e-05 -4.0000000000000024e-06 -2.0000000000000005e-05 0 0 0 2.7288956588589175e-11 -5.457791317717835e-12 8.1866869765767541e-12
844 3.010933931686592e-06 1.4292305813323753e-14 2.7999999999999996e-05 -4.0000000000000024e-06 -1.2000000000000004e-05 0 0 0 2.8377383760692489e-11 -5.6754767521384983e-12 8.5132151282077454e-12
845 2.1497254589482002e-06 5.2017277917457806e-15 2.7999999999999996e-05 -4.0000000000000024e-06 -4.0000000000000024e-06 0 0 0 2.0260685127199835e-11 -4.0521370254399672e-12 6.0782055381599496e-12
846 2.4089819162586641e-06 7.3198004539272575e-15 2.7999999999999996e-05 -4.0000000000000024e-06 3.9999999999999956e-06 0 0 0 2.2704119672246646e-11 -4.5408239344493287e-12 6.8112359016739926e-12
847 2.4869882629010491e-06 8.0541521453742551e-15 2.7999999999999996e-05 -4.0000000000000024e-06 1.1999999999999994e-05 0 0 0 2.3439312168881933e-11 -4.6878624337763863e-12 7.0317936506645786e-12
848 1.6635771363664636e-06 2.4106127603555473e-15 2.7999999999999996e-05 -4.0000000000000024e-06 1.9999999999999991e-05 0 0 0 1.5678845130866484e-11 -3.1357690261732966e-12 4.703653539259944e-12
849 2.7189761915751899e-06 1.0524823864958043e-14 2.7999999999999996e-05 -4.0000000000000024e-06 2.7999999999999996e-05 0 0 0 2.5625746886214512e-11 -5.1251493772429025e-12 7.6877240658643526e-12
850 1.9857423936634905e-06 4.0998441254793995e-15 2.7999999999999996e-05 -4.0000000000000024e-06 3.5999999999999987e-05 0 0 0 1.8715181147565097e-11 -3.7430362295130195e-12 5.6145543442695288e-12
851 1.705645682225712e-06 2.5981551397121384e-15 2.7999999999999996e-05 3.9999999999999956e-06 -3.6000000000000001e-05 0 0 0 1.6075331834722342e-11 -3.215066366944468e-12 4.8225995504167034e-12
852 1.8141758938474895e-06 3.1263442525202803e-15 2.7999999999999996e-05 3.9999999999999956e-06 -2.8000000000000003e-05 0 0 0 1.7098204981292909e-11 -3.4196409962585812e-12 5.1294614943878731e-12
853 2.3782813183150755e-06 7.0434963787438937e-15 2.7999999999999996e-05 3.9999999999999956e-06 -2.0000000000000005e-05 0 0 0 2.2414773353365469e-11 -4.4829546706730932e-12 6.7244320060096414e-12
854 8.921539944723351e-07 3.718074565376058e-16 2.7999999999999996e-05 3.9999999999999956e-06 -1.2000000000000004e-05 0 0 0 8.4083533047152309e-12 -1.6816706609430462e-12 2.5225059914145689e-12
855 2.709675842169744e-06 1.0417191325835575e-14 2.7999999999999996e-05 3.9999999999999956e-06 -4.0000000000000024e-06 0 0 0 2.5538093158110612e-11 -5.107618631622122e-12 7.6614279474331823e-12
856 1.0008042546485445e-06 5.2486311214960469e-16 2.7999999999999996e-05 3.9999999999999956e-06 3.9999999999999956e-06 0 0 0 9.4323578822558296e-12 -1.8864715764511658e-12 2.8297073646767486e-12
857 2.4891268586605767e-06 8.0749476494536077e-15 2.7999999999999996e-05 3.9999999999999956e-06 1.1999999999999994e-05 0 0 0 2.3459467959063321e-11 -4.6918935918126646e-12 7.0378403877189953e-12
858 1.5762222036762715e-06 2.0504583174581104e-15 2.7999999999999996e-05 3.9999999999999956e-06 1.9999999999999991e-05 0 0 0 1.4855544286483469e-11 -2.9711088572966939e-12 4.4566632859450402e-12
859 2.1931286001536037e-06 5.5232018828947613e-15 2.7999999999999996e-05 3.9999999999999956e-06 2.7999999999999996e-05 0 0 0 2.0669750095860687e-11 -4.1339500191721371e-12 6.2009250287582049e-12
860 1.7254564450292939e-06 2.6897420061175136e-15 2.7999999999999996e-05 3.9999999999999956e-06 3.5999999999999987e-05 0 0 0 1.6262043875379571e-11 -3.2524087750759144e-12 4.8786131626138704e-12
861 1.2302532302227318e-06 9.7494959758402164e-16 2.7999999999999996e-05 1.1999999999999994e-05 -3.6000000000000001e-05 0 0 0 1.159486353036854e-11 -2.3189727060737078e-12 3.4784590591105616e-12
862 1.9142003506216468e-06 3.6724914776089472e-15 2.7999999999999996e-05 1.1999999999999994e-05 -2.8000000000000003e-05 0 0 0 1.8040913277035919e-11 -3.6081826554071831e-12 5.4122739831107747e-12
863 1.603561049895946e-06 2.1590123108023243e-15 2.7999999999999996e-05 1.1999999999999994e-05 -2.0000000000000005e-05 0 0 0 1.5113206841807521e-11 -3.0226413683615033e-12 4.5339620525422554e-12
864 2.3495854126709589e-06 6.7916036641926958e-15 2.7999999999999996e-05 1.1999999999999994e-05 -1.2000000000000004e-05 0 0 0 2.2144320814286482e-11 -4.4288641628572969e-12 6.6432962442859434e-12
865 1.643712640379044e-06 2.3252856270054106e-15 2.7999999999999996e-05 1.1999999999999994e-05 -4.0000000000000024e-06 0 0 0 1.5491626666882459e-11 -3.098325333376492e-12 4.6474880000647379e-12
866 2.3396803766320096e-06 6.7060721244181032e-15 2.7999999999999996e-05 1.1999999999999994e-05 3.9999999999999956e-06 0 0 0 2.2050968048925966e-11 -4.4101936097851931e-12 6.6152904146777893e-12
867 1.7199285183615344e-06 2.6639729779918023e-15 2.7999999999999996e-05 1.1999999999999994e-05 1.1999999999999994e-05 0 0 0 1.6209944393952523e-11 -3.2419888787905048e-12 4.8629833181857562e-12
868 1.8075037108339482e-06 3.0919767176451749e-15 2.7999999999999996e-05 1.1999999999999994e-05 1.9999999999999991e-05 0 0 0 1.7035321137876665e-11 -3.4070642275753334e-12 5.1105963413629993e-12
869 1.691804739203171e-06 2.5354166261587664e-15 2.7999999999999996e-05 1.1999999999999994e-05 2.7999999999999996e-05 0 0 0 1.5944884019967236e-11 -3.1889768039934476e-12 4.7834652059901702e-12
870 1.3554677432452198e-06 1.303965746079972e-15 2.7999999999999996e-05 1.1999999999999994e-05 3.5999999999999987e-05 0 0 0 1.2774982513071356e-11 -2.5549965026142715e-12 3.8324947539214067e-12
871 1.3162402673063526e-06 1.193999489194399e-15 2.7999999999999996e-05 1.9999999999999991e-05 -3.6000000000000001e-05 0 0 0 1.2405272262386109e-11 -2.4810544524772217e-12 3.7215816787158324e-12
872 1.8943124618880473e-06 3.559208838842756e-15 2.7999999999999996e-05 1.9999999999999991e-05 -2.8000000000000003e-05 0 0 0 1.7853474341613254e-11 -3.5706948683226507e-12 5.3560423024839761e-12
873 1.7446417013757645e-06 2.780464594776153e-15 2.7999999999999996e-05 1.9999999999999991e-05 -2.0000000000000005e-05 0 0 0 1.6442860656565499e-11 -3.2885721313130994e-12 4.9328581969696487e-12
874 2.6606090963525473e-06 9.861474067011599e-15 2.7999999999999996e-05 1.9999999999999991e-05 -1.2000000000000004e-05 0 0 0 2.5075649973526022e-11 -5.0151299947052054e-12 7.5226949920578061e-12
875 1.4589817763149314e-06 1.6261036482668153e-15 2.7999999999999996e-05 1.9999999999999991e-05 -4.0000000000000024e-06 0 0 0 1.3750579290577126e-11 -2.7501158581154254e-12 4.1251737871731377e-12
876 1.9405643896678647e-06 3.8263332798801785e-15 2.7999999999999996e-05 1.9999999999999991e-05 3.9999999999999956e-06 0 0 0 1.8289388491195575e-11 -3.6578776982391155e-12 5.486816547358672e-12
877 3.4518664832040718e-06 2.1535779177085034e-14 2.7999999999999996e-05 1.9999999999999991e-05 1.1999999999999994e-05 0 0 0 3.2533075154420243e-11 -6.5066150308840487e-12 9.7599225463260702e-12
878 1.5144521526855962e-06 1.8187176978404169e-15 2.7999999999999996e-05 1.9999999999999991e-05 1.9999999999999991e-05 0 0 0 1.4273375271270951e-11 -2.8546750542541908e-12 4.2820125813812846e-12
879 2.3169441549445473e-06 6.5124637781427101e-15 2.7999999999999996e-05 1.9999999999999991e-05 2.7999999999999996e-05 0 0 0 2.1836684207854801e-11 -4.3673368415709609e-12 6.5510052623564398e-12
880 1.9544386503906593e-06 3.908991714408857e-15 2.7999999999999996e-05 1.9999999999999991e-05 3.5999999999999987e-05 0 0 0 1.8420150317877737e-11 -3.6840300635755481e-12 5.5260450953633205e-12
881 1.3381471008600657e-06 1.2546141889613616e-15 2.7999999999999996e-05 2.7999999999999996e-05 -3.6000000000000001e-05 0 0 0 1.2611739304453387e-11 -2.5223478608906773e-12 3.783521791336016e-12
882 3.1513410156959447e-06 1.6386448154081636e-14 2.7999999999999996e-05 2.7999999999999996e-05 -2.8000000000000003e-05 0 0 0 2.9700689351599732e-11 -5.9401378703199459e-12 8.9102068054799193e-12
883 2.7343110818085223e-06 1.0703908553122827e-14 2.7999999999999996e-05 2.7999999999999996e-05 -2.0000000000000005e-05 0 0 0 2.577027482171644e-11 -5.154054964343287e-12 7.7310824465149314e-12
884 1.4942943236509242e-06 1.7470569509278235e-15 2.7999999999999996e-05 2.7999999999999996e-05 -1.2000000000000004e-05 0 0 0 1.4083392208448016e-11 -2.8166784416896035e-12 4.2250176625344043e-12
885 1.1342169163345158e-06 7.6398878472502137e-16 2.7999999999999996e-05 2.7999999999999996e-05 -4.0000000000000024e-06 0 0 0 1.0689742595801352e-11 -2.1379485191602702e-12 3.2069227787404051e-12
886 2.5303590076986036e-06 8.4829137677041905e-15 2.7999999999999996e-05 2.7999999999999996e-05 3.9999999999999956e-06 0 0 0 2.3848071808592076e-11 -4.7696143617184153e-12 7.1544215425776225e-12
887 2.5370599438944112e-06 8.5504861521385385e-15 2.7999999999999996e-05 2.7999999999999996e-05 1.1999999999999994e-05 0 0 0 2.3911226644366845e-11 -4.78224532887337e-12 7.1733679933100534e-12
888 2.0093233265474273e-06 4.2476438986133441e-15 2.7999999999999996e-05 2.7999999999999996e-05 1.9999999999999991e-05 0 0 0 1.8937426204104007e-11 -3.7874852408208023e-12 5.6812278612312019e-12
889 1.606761726669744e-06 2.171966172260895e-15 2.7999999999999996e-05 2.7999999999999996e-05 2.7999999999999996e-05 0 0 0 1.5143372509724756e-11 -3.0286745019449517e-12 4.5430117529174263e-12
890 1.7526749520910882e-06 2.8190498949054901e-15 2.7999999999999996e-05 2.7999999999999996e-05 3.5999999999999987e-05 0 0 0 1.6518572260860619e-11 -3.3037144521721242e-12 4.9555716782581847e-12
891 1.3676298403068712e-06 1.3393815943217417e-15 2.7999999999999996e-05 3.5999999999999987e-05 -3.6000000000000001e-05 0 0 0 1.2889607577414746e-11 -2.577921515482949e-12 3.8668822732244232e-12
892 1.9554239212310721e-06 3.9149064932399048e-15 2.7999999999999996e-05 3.5999999999999987e-05 -2.8000000000000003e-05 0 0 0 1.8429436276779847e-11 -3.6858872553559692e-12 5.5288308830339534e-12
893 1.7453211883936622e-06 2.7837145896256318e-15 2.7999999999999996e-05 3.5999999999999987e-05 -2.0000000000000005e-05 0 0 0 1.6449264670836407e-11 -3.2898529341672815e-12 4.9347794012509222e-12
894 1.3433740857041237e-06 1.2693737738061465e-15 2.7999999999999996e-05 3.5999999999999987e-05 -1.2000000000000004e-05 0 0 0 1.2661002476012942e-11 -2.5322004952025887e-12 3.7983007428038822e-12
895 1.8367965121468236e-06 3.2447538801886752e-15 2.7999999999999996e-05 3.5999999999999987e-05 -4.0000000000000024e-06 0 0 0 1.7311399286099449e-11 -3.4622798572198901e-12 5.1934197858298349e-12
896 1.1720789377370107e-06 8.430808166486083e-16 2.7999999999999996e-05 3.5999999999999987e-05 3.9999999999999956e-06 0 0 0 1.1046583740665765e-11 -2.209316748133153e-12 3.3139751221997291e-12
897 2.2356750193667265e-06 5.850926532247727e-15 2.7999999999999996e-05 3.5999999999999987e-05 1.1999999999999994e-05 0 0 0 2.107074064997018e-11 -4.214148129994037e-12 6.3212221949910531e-12
898 2.1650350584928744e-06 5.3136558401122679e-15 2.7999999999999996e-05 3.5999999999999987e-05 1.9999999999999991e-05 0 0 0 2.0404974703576685e-11 -4.0809949407153383e-12 6.121492411073005e-12
899 2.0817834637436428e-06 4.7239499293678713e-15 2.7999999999999996e-05 3.5999999999999987e-05 2.7999999999999996e-05 0 0 0 1.9620346908185226e-11 -3.9240693816370463e-12 5.8861040724555675e-12
900 1.8421492471316917e-06 3.2732039085535684e-15 2.7999999999999996e-05 3.5999999999999987e-05 3.5999999999999987e-05 0 0 0 1.7361847624814671e-11 -3.472369524962935e-12 5.2085542874444013e-12
901 1.6741093785165795e-06 2.4566885992295195e-15 3.5999999999999987e-05 -3.6000000000000001e-05 -3.6000000000000001e-05 0 0 0 1.577810917456038e-11 -3.1556218349120767e-12 4.7334327523681134e-12
902 1.4066090571625892e-06 1.457198954053195e-15 3.5999999999999987e-05 -3.6000000000000001e-05 -2.8000000000000003e-05 0 0 0 1.3256978041364567e-11 -2.6513956082729137e-12 3.9770934124093695e-12
903 3.4888977222314693e-06 2.2236341587693525e-14 3.5999999999999987e-05 -3.6000000000000001e-05 -2.0000000000000005e-05 0 0 0 3.2882086359865639e-11 -6.5764172719731284e-12 9.864625907959691e-12
904 1.9997844841183427e-06 4.1874362244779097e-15 3.5999999999999987e-05 -3.6000000000000001e-05 -1.2000000000000004e-05 0 0 0 1.8847524732207121e-11 -3.7695049464414242e-12 5.6542574196621356e-12
905 1.3609690074357227e-06 1.319906988862926e-15 3.5999999999999987e-05 -3.6000000000000001e-05 -4.0000000000000024e-06 0 0 0 1.2826830706570377e-11 -2.5653661413140751e-12 3.8480492119711136e-12
906 2.0415884067782528e-06 4.4555692190158543e-15 3.5999999999999987e-05 -3.6000000000000001e-05 3.9999999999999956e-06 0 0 0 1.9241517421165946e-11 -3.8483034842331892e-12 5.7724552263497846e-12
907 1.6807086910570684e-06 2.4858559570666689e-15 3.5999999999999987e-05 -3.6000000000000001e-05 1.1999999999999994e-05 0 0 0 1.5840306229948209e-11 -3.1680612459896418e-12 4.7520918689844628e-12
908 2.2669422143260758e-06 6.0998614659991754e-15 3.5999999999999987e-05 -3.6000000000000001e-05 1.9999999999999991e-05 0 0 0 2.1365427019918137e-11 -4.2730854039836268e-12 6.4096281059754402e-12
909 2.1784043053008598e-06 5.4127015625288367e-15 3.5999999999999987e-05 -3.6000000000000001e-05 2.7999999999999996e-05 0 0 0 2.0530976886244672e-11 -4.1061953772489338e-12 6.1592930658734015e-12
910 1.1864469662013441e-06 8.7446737807295931e-16 3.5999999999999987e-05 -3.6000000000000001e-05 3.5999999999999987e-05 0 0 0 1.118199921867612e-11 -2.236399843735224e-12 3.3545997656028358e-12
911 1.7622901368455437e-06 2.8657008601813834e-15 3.5999999999999987e-05 -2.8000000000000003e-05 -3.6000000000000001e-05 0 0 0 1.6609193242223135e-11 -3.3218386484446278e-12 4.9827579726669404e-12
912 1.7309016342733958e-06 2.7152872869356908e-15 3.5999999999999987e-05 -2.8000000000000003e-05 -2.8000000000000003e-05 0 0 0 1.6313363574959601e-11 -3.2626727149919206e-12 4.8940090724878795e-12
913 2.9676941644738154e-06 1.3685354462123239e-14 3.5999999999999987e-05 -2.8000000000000003e-05 -2.0000000000000005e-05 0 0 0 2.7969858555636711e-11 -5.5939717111273431e-12 8.3909575666910134e-12
914 3.4456713355565817e-06 2.1420034815320596e-14 3.5999999999999987e-05 -2.8000000000000003e-05 -1.2000000000000004e-05 0 0 0 3.247468726340847e-11 -6.4949374526816932e-12 9.7424061790225394e-12
915 2.2035740783337841e-06 5.6024964121079835e-15 3.5999999999999987e-05 -2.8000000000000003e-05 -4.0000000000000024e-06 0 0 0 2.0768196408402946e-11 -4.153639281680589e-12 6.2304589225208838e-12
916 1.7116788389388496e-06 2.6258231156359181e-15 3.5999999999999987e-05 -2.8000000000000003e-05 3.9999999999999956e-06 0 0 0 1.6132192997146191e-11 -3.2264385994292378e-12 4.8396578991438576e-12
917 1.372002391541894e-06 1.3522694212587353e-15 3.5999999999999987e-05 -2.8000000000000003e-05 1.1999999999999994e-05 0 0 0 1.2930817901926923e-11 -2.5861635803853844e-12 3.8792453705780768e-12
918 1.4932385241498221e-06 1.7433563970275185e-15 3.5999999999999987e-05 -2.8000000000000003e-05 1.9999999999999991e-05 0 0 0 1.4073441532579037e-11 -2.8146883065158073e-12 4.2220324597737106e-12
919 2.8356415659917815e-06 1.1938578618060175e-14 3.5999999999999987e-05 -2.8000000000000003e-05 2.7999999999999996e-05 0 0 0 2.6725292135800911e-11 -5.3450584271601815e-12 8.0175876407402723e-12
920 1.3861295064702962e-06 1.3944728002344298e-15 3.5999999999999987e-05 -2.8000000000000003e-05 3.5999999999999987e-05 0 0 0 1.3063962823353386e-11 -2.6127925646706767e-12 3.9191888470060155e-12
921 1.845212175280861e-06 3.2895580673439902e-15 3.5999999999999987e-05 -2.0000000000000005e-05 -3.6000000000000001e-05 0 0 0 1.7390715042530383e-11 -3.4781430085060772e-12 5.2172145127591142e-12
922 1.4384804311000883e-06 1.5585132427771021e-15 3.5999999999999987e-05 -2.0000000000000005e-05 -2.8000000000000003e-05 0 0 0 1.3557358664030148e-11 -2.7114717328060301e-12 4.0672075992090439e-12
923 1.8309303600286578e-06 3.2137648809622351e-15 3.5999999999999987e-05 -2.0000000000000005e-05 -2.0000000000000005e-05 0 0 0 1.7256112104901641e-11 -3.4512224209803288e-12 5.1768336314704914e-12
924 2.0369649720020834e-06 4.4253671213088473e-15 3.5999999999999987e-05 -2.0000000000000005e-05 -1.2000000000000004e-05 0 0 0 1.9197942574984453e-11 -3.8395885149968901e-12 5.7593827724953355e-12
925 1.2681172279007341e-06 1.0677678253642439e-15 3.5999999999999987e-05 -2.0000000000000005e-05 -4.0000000000000024e-06 0 0 0 1.1951723301190799e-11 -2.3903446602381594e-12 3.5855169903572399e-12
926 1.8052442599971658e-06 3.080395928086431e-15 3.5999999999999987e-05 -2.0000000000000005e-05 3.9999999999999956e-06 0 0 0 1.7014026315426717e-11 -3.4028052630853428e-12 5.104207894628015e-12
927 3.6369470930568832e-06 2.5188921472003462e-14 3.5999999999999987e-05 -2.0000000000000005e-05 1.1999999999999994e-05 0 0 0 3.4277418807126775e-11 -6.8554837614253546e-12 1.0283225642138031e-11
928 3.9977678943152706e-06 3.3454254002586413e-14 3.5999999999999987e-05 -2.0000000000000005e-05 1.9999999999999991e-05 0 0 0 3.7678074742613976e-11 -7.5356149485227936e-12 1.1303422422784191e-11
929 1.6752054574566133e-06 2.4615171152970581e-15 3.5999999999999987e-05 -2.0000000000000005e-05 2.7999999999999996e-05 0 0 0 1.5788439475197676e-11 -3.1576878950395348e-12 4.7365318425593021e-12
930 1.6643484220976796e-06 2.4139672186496517e-15 3.5999999999999987e-05 -2.0000000000000005e-05 3.5999999999999987e-05 0 0 0 1.5686114327627502e-11 -3.1372228655255002e-12 4.7058342982882499e-12
931 2.050135036705258e-06 4.5117603743088432e-15 3.5999999999999987e-05 -1.2000000000000004e-05 -3.6000000000000001e-05 0 0 0 1.9322067510540839e-11 -3.8644135021081676e-12 5.796620253162251e-12
932 1.3104661889006912e-06 1.1783548214157782e-15 3.5999999999999987e-05 -1.2000000000000004e-05 -2.8000000000000003e-05 0 0 0 1.2350852855484677e-11 -2.470170571096935e-12 3.7052558566454026e-12
933 1.8604720860159418e-06 3.3718488437171532e-15 3.5999999999999987e-05 -1.2000000000000004e-05 -2.0000000000000005e-05 0 0 0 1.7534536312909683e-11 -3.5069072625819362e-12 5.2603608938729041e-12
934 1.0596218753395781e-06 6.2294738746322288e-16 3.5999999999999987e-05 -1.2000000000000004e-05 -1.2000000000000004e-05 0 0 0 9.9867008974495755e-12 -1.9973401794899155e-12 2.9960102692348723e-12
935 1.5828797650114929e-06 2.0765500545154842e-15 3.5999999999999987e-05 -1.2000000000000004e-05 -4.0000000000000024e-06 0 0 0 1.4918290323828133e-11 -2.9836580647656266e-12 4.4754870971484389e-12
936 1.8572361715644293e-06 3.3542854822682228e-15 3.5999999999999987e-05 -1.2000000000000004e-05 3.9999999999999956e-06 0 0 0 1.7504038537704132e-11 -3.5008077075408266e-12 5.2512115613112396e-12
937 2.1909343244779672e-06 5.5066401922304733e-15 3.5999999999999987e-05 -1.2000000000000004e-05 1.1999999999999994e-05 0 0 0 2.0649069534833096e-11 -4.1298139069666197e-12 6.1947208604499275e-12
938 9.8923908077164625e-07 5.0687680485551505e-16 3.5999999999999987e-05 -1.2000000000000004e-05 1.9999999999999991e-05 0 0 0 9.3233586863883715e-12 -1.8646717372776744e-12 2.797007605916511e-12
939 1.9943796262405484e-06 4.1535755005180078e-15 3.5999999999999987e-05 -1.2000000000000004e-05 2.7999999999999996e-05 0 0 0 1.8796585146799393e-11 -3.7593170293598793e-12 5.6389755440398173e-12
940 2.1462913786561464e-06 5.1768390825670797e-15 3.5999999999999987e-05 -1.2000000000000004e-05 3.5999999999999987e-05 0 0 0 2.0228319682947775e-11 -4.0456639365895559e-12 6.0684959048843326e-12
941 1.2366447078543886e-06 9.9022400937439111e-16 3.5999999999999987e-05 -4.0000000000000024e-06 -3.6000000000000001e-05 0 0 0 1.1655101787888129e-11 -2.3310203575776256e-12 3.4965305363664388e-12
942 1.5846453520085959e-06 2.0835065288485727e-15 3.5999999999999987e-05 -4.0000000000000024e-06 -2.8000000000000003e-05 0 0 0 1.4934930589246251e-11 -2.98698611784925e-12 4.4804791767738757e-12
943 2.090087547842132e-06 4.7807062119614374e-15 3.5999999999999987e-05 -4.0000000000000024e-06 -2.0000000000000005e-05 0 0 0 1.9698611056981044e-11 -3.939722211396208e-12 5.9095833170943132e-12
944 2.1547450525091941e-06 5.2382509319118463e-15 3.5999999999999987e-05 -4.0000000000000024e-06 -1.2000000000000004e-05 0 0 0 2.0307993681965512e-11 -4.0615987363931023e-12 6.0923981045896535e-12
945 1.8211212883692451e-06 3.1623886005097106e-15 3.5999999999999987e-05 -4.0000000000000024e-06 -4.0000000000000024e-06 0 0 0 1.7163663782510401e-11 -3.4327327565020803e-12 5.1490991347531192e-12
946 1.8529034718441074e-06 3.3308648192014473e-15 3.5999999999999987e-05 -4.0000000000000024e-06 3.9999999999999956e-06 0 0 0 1.7463203804869407e-11 -3.4926407609738816e-12 5.2389611414608223e-12
947 1.8808362172384493e-06 3.4837867184495881e-15 3.5999999999999987e-05 -4.0000000000000024e-06 1.1999999999999994e-05 0 0 0 1.7726463728045789e-11 -3.5452927456091574e-12 5.3179391184137353e-12
948 1.8585627610312498e-06 3.3614783298913445e-15 3.5999999999999987e-05 -4.0000000000000024e-06 1.9999999999999991e-05 0 0 0 1.751654134887401e-11 -3.5033082697748024e-12 5.254962404662203e-12
949 1.5103529046132578e-06 1.8039891769988506e-15 3.5999999999999987e-05 -4.0000000000000024e-06 2.7999999999999996e-05 0 0 0 1.4234740768383049e-11 -2.8469481536766101e-12 4.2704222305149141e-12
950 2.4820417742363207e-06 8.0061898133322905e-15 3.5999999999999987e-05 -4.0000000000000024e-06 3.5999999999999987e-05 0 0 0 2.3392692611531405e-11 -4.6785385223062814e-12 7.0178077834594209e-12
951 3.0883663354100024e-06 1.5423575073604312e-14 3.5999999999999987e-05 3.9999999999999956e-06 -3.6000000000000001e-05 0 0 0 2.9107166972754283e-11 -5.8214333945508557e-12 8.7321500918262864e-12
952 2.4172196993627519e-06 7.3951501633627336e-15 3.5999999999999987e-05 3.9999999999999956e-06 -2.8000000000000003e-05 0 0 0 2.2781758948891653e-11 -4.5563517897783295e-12 6.8345276846674959e-12
953 2.2036994338752228e-06 5.6034526004172935e-15 3.5999999999999987e-05 3.9999999999999956e-06 -2.0000000000000005e-05 0 0 0 2.0769377856547158e-11 -4.1538755713094314e-12 6.2308133569641484e-12
954 1.4301405534572505e-06 1.5315627239415872e-15 3.5999999999999987e-05 3.9999999999999956e-06 -1.2000000000000004e-05 0 0 0 1.3478757169026417e-11 -2.6957514338052836e-12 4.043627150707925e-12
955 1.6207068529999303e-06 2.2290100561471153e-15 3.5999999999999987e-05 3.9999999999999956e-06 -4.0000000000000024e-06 0 0 0 1.5274802229021641e-11 -3.0549604458043283e-12 4.582440668706492e-12
956 1.1577170808590325e-06 8.1246740165796705e-16 3.5999999999999987e-05 3.9999999999999956e-06 3.9999999999999956e-06 0 0 0 1.0911226428486471e-11 -2.1822452856972944e-12 3.273367928545941e-12
957 1.2812762650215954e-06 1.1013540818792529e-15 3.5999999999999987e-05 3.9999999999999956e-06 1.1999999999999994e-05 0 0 0 1.207574430423244e-11 -2.4151488608464882e-12 3.6227232912697315e-12
958 1.6812183381141014e-06 2.4881180267296247e-15 3.5999999999999987e-05 3.9999999999999956e-06 1.9999999999999991e-05 0 0 0 1.5845109540299105e-11 -3.1690219080598214e-12 4.7535328620897312e-12
959 1.9877804957340344e-06 4.1124809307207932e-15 3.5999999999999987e-05 3.9999999999999956e-06 2.7999999999999996e-05 0 0 0 1.8734389807041359e-11 -3.7468779614082714e-12 5.6203169421124066e-12
960 1.7458876052660769e-06 2.7864257032329281e-15 3.5999999999999987e-05 3.9999999999999956e-06 3.5999999999999987e-05 0 0 0 1.6454603024092152e-11 -3.2909206048184303e-12 4.936380907227645e-12
961 2.8808651058087722e-06 1.2518935218759722e-14 3.5999999999999987e-05 1.1999999999999994e-05 -3.6000000000000001e-05 0 0 0 2.7151513957176064e-11 -5.4303027914352124e-12 8.145454187152819e-12
962 1.9946429254413695e-06 4.1552207903373102e-15 3.5999999999999987e-05 1.1999999999999994e-05 -2.8000000000000003e-05 0 0 0 1.879906668330438e-11 -3.7598133366608756e-12 5.6397200049913138e-12
963 2.6515598551523595e-06 9.7611936276153229e-15 3.5999999999999987e-05 1.1999999999999994e-05 -2.0000000000000005e-05 0 0 0 2.4990362884500805e-11 -4.9980725769001609e-12 7.4971088653502409e-12
964 2.0843346861950314e-06 4.7413388022493423e-15 3.5999999999999987e-05 1.1999999999999994e-05 -1.2000000000000004e-05 0 0 0 1.9644391613318094e-11 -3.9288783226636194e-12 5.8933174839954275e-12
965 1.2311599707052219e-06 9.7710690463039616e-16 3.5999999999999987e-05 1.1999999999999994e-05 -4.0000000000000024e-06 0 0 0 1.160340935808405e-11 -2.3206818716168099e-12 3.4810228074252147e-12
966 1.6083754095908063e-06 2.1785167126419259e-15 3.5999999999999987e-05 1.1999999999999994e-05 3.9999999999999956e-06 0 0 0 1.5158581112954854e-11 -3.0317162225909707e-12 4.5475743338864557e-12
967 2.2117469619257193e-06 5.6650655640471739e-15 3.5999999999999987e-05 1.1999999999999994e-05 1.1999999999999994e-05 0 0 0 2.0845224021556152e-11 -4.1690448043112311e-12 6.2535672064668451e-12
968 1.3429506467891236e-06 1.26817381129379e-15 3.5999999999999987e-05 1.1999999999999994e-05 1.9999999999999991e-05 0 0 0 1.2657011658259116e-11 -2.5314023316518234e-12 3.7971034974777341e-12
969 1.859912014367879e-06 3.3688046026753218e-15 3.5999999999999987e-05 1.1999999999999994e-05 2.7999999999999996e-05 0 0 0 1.752925776198457e-11 -3.5058515523969147e-12 5.2587773285953704e-12
970 3.1231651209418101e-06 1.595083637165562e-14 3.5999999999999987e-05 1.1999999999999994e-05 3.5999999999999987e-05 0 0 0 2.9435137799696006e-11 -5.8870275599392027e-12 8.8305413399088013e-12
971 2.6540340181740143e-06 9.7885435586133407e-15 3.5999999999999987e-05 1.9999999999999991e-05 -3.6000000000000001e-05 0 0 0 2.5013681321618648e-11 -5.0027362643237293e-12 7.5041043964855931e-12
972 1.6325837069028243e-06 2.2783738960711856e-15 3.5999999999999987e-05 1.9999999999999991e-05 -2.8000000000000003e-05 0 0 0 1.5386738939928912e-11 -3.0773477879857824e-12 4.6160216819786733e-12
973 1.0672455074737749e-06 6.3649006381821912e-16 3.5999999999999987e-05 1.9999999999999991e-05 -2.0000000000000005e-05 0 0 0 1.0058551937568966e-11 -2.011710387513793e-12 3.0175655812706893e-12
974 1.6206481208826622e-06 2.2287677364413595e-15 3.5999999999999987e-05 1.9999999999999991e-05 -1.2000000000000004e-05 0 0 0 1.5274248691857224e-11 -3.0548497383714452e-12 4.5822746075571672e-12
975 1.9814518342590832e-06 4.0733261172433044e-15 3.5999999999999987e-05 1.9999999999999991e-05 -4.0000000000000024e-06 0 0 0 1.867474357785107e-11 -3.7349487155702137e-12 5.6024230733553202e-12
976 1.4567690209463027e-06 1.6187162046661419e-15 3.5999999999999987e-05 1.9999999999999991e-05 3.9999999999999956e-06 0 0 0 1.3729724562546301e-11 -2.7459449125092601e-12 4.1189173687638899e-12
977 1.8329810054199902e-06 3.2245752473983869e-15 3.5999999999999987e-05 1.9999999999999991e-05 1.1999999999999994e-05 0 0 0 1.7275438982391223e-11 -3.4550877964782449e-12 5.182631694717366e-12
978 1.1000226469480124e-06 6.9695301543627101e-16 3.5999999999999987e-05 1.9999999999999991e-05 1.9999999999999991e-05 0 0 0 1.0367469199302824e-11 -2.0734938398605651e-12 3.1102407597908469e-12
979 2.1839234858535288e-06 5.4539465628166066e-15 3.5999999999999987e-05 1.9999999999999991e-05 2.7999999999999996e-05 0 0 0 2.0582993937478973e-11 -4.1165987874957956e-12 6.1748981812436918e-12
980 1.286296931103056e-06 1.1143518098593373e-15 3.5999999999999987e-05 1.9999999999999991e-05 3.5999999999999987e-05 0 0 0 1.2123062967265373e-11 -2.4246125934530747e-12 3.6369188901796112e-12
981 2.8878068424174468e-06 1.2609650387144783e-14 3.5999999999999987e-05 2.7999999999999996e-05 -3.6000000000000001e-05 0 0 0 2.7216938283374963e-11 -5.4433876566749923e-12 8.1650814850124876e-12
982 1.2580686687944073e-06 1.0425854565574758e-15 3.5999999999999987e-05 2.7999999999999996e-05 -2.8000000000000003e-05 0 0 0 1.1857017862788003e-11 -2.3714035725576e-12 3.5571053588364002e-12
983 1.7321992338854897e-06 2.7213985488298525e-15 3.5999999999999987e-05 2.7999999999999996e-05 -2.0000000000000005e-05 0 0 0 1.632559316318557e-11 -3.2651186326371136e-12 4.8976779489556702e-12
984 2.4382894221758927e-06 7.5902203872611085e-15 3.5999999999999987e-05 2.7999999999999996e-05 -1.2000000000000004e-05 0 0 0 2.2980336408100462e-11 -4.5960672816200931e-12 6.8941009224301377e-12
985 2.0264531657053335e-06 4.3572084314954033e-15 3.5999999999999987e-05 2.7999999999999996e-05 -4.0000000000000024e-06 0 0 0 1.9098871134670967e-11 -3.819774226934193e-12 5.7296613404012896e-12
986 1.3120119464931615e-06 1.182529519535924e-15 3.5999999999999987e-05 2.7999999999999996e-05 3.9999999999999956e-06 0 0 0 1.2365421277574883e-11 -2.4730842555149765e-12 3.7096263832724646e-12
987 2.7557237112288758e-06 1.0957352709593576e-14 3.5999999999999987e-05 2.7999999999999996e-05 1.1999999999999994e-05 0 0 0 2.5972084099559513e-11 -5.1944168199119028e-12 7.791625229867853e-12
988 2.1430875672507973e-06 5.1536909617144071e-15 3.5999999999999987e-05 2.7999999999999996e-05 1.9999999999999991e-05 0 0 0 2.0198124471824178e-11 -4.0396248943648366e-12 6.0594373415472533e-12
989 1.2535009683405528e-06 1.0312706162657303e-15 3.5999999999999987e-05 2.7999999999999996e-05 2.7999999999999996e-05 0 0 0 1.1813968300219118e-11 -2.3627936600438241e-12 3.5441904900657349e-12
990 1.4149569048441568e-06 1.4832974863226938e-15 3.5999999999999987e-05 2.7999999999999996e-05 3.5999999999999987e-05 0 0 0 1.3335654652213666e-11 -2.6671309304427336e-12 4.000696395664099e-12
991 9.3555568948870781e-07 4.2875337828642416e-16 3.5999999999999987e-05 3.5999999999999987e-05 -3.6000000000000001e-05 0 0 0 8.8174046433655747e-12 -1.7634809286731147e-12 2.6452213930096722e-12
992 2.3857000090422197e-06 7.1096155808923695e-15 3.5999999999999987e-05 3.5999999999999987e-05 -2.8000000000000003e-05 0 0 0 2.2484692866228423e-11 -4.496938573245684e-12 6.745407859868526e-12
993 2.5427247268262852e-06 8.6078890668574611e-15 3.5999999999999987e-05 3.5999999999999987e-05 -2.0000000000000005e-05 0 0 0 2.3964615965695714e-11 -4.7929231931391422e-12 7.1893847897087141e-12
994 1.4728647211065732e-06 1.6729663350803464e-15 3.5999999999999987e-05 3.5999999999999987e-05 -1.2000000000000004e-05 0 0 0 1.388142296267997e-11 -2.7762845925359945e-12 4.1644268888039905e-12
995 2.6582912608838709e-06 9.8357235337921906e-15 3.5999999999999987e-05 3.5999999999999987e-05 -4.0000000000000024e-06 0 0 0 2.5053804888884152e-11 -5.0107609777768305e-12 7.5161414666652441e-12
996 1.8428575322196899e-06 3.2769808875678256e-15 3.5999999999999987e-05 3.5999999999999987e-05 3.9999999999999956e-06 0 0 0 1.7368523054501978e-11 -3.4737046109003961e-12 5.210556916350593e-12
997 2.9423269055856041e-06 1.3337406616105307e-14 3.5999999999999987e-05 3.5999999999999987e-05 1.1999999999999994e-05 0 0 0 2.773077777314197e-11 -5.5461555546283947e-12 8.3192333319425893e-12
998 1.9541473510775281e-06 3.9072441278666559e-15 3.5999999999999987e-05 3.5999999999999987e-05 1.9999999999999991e-05 0 0 0 1.8417404886531348e-11 -3.6834809773062702e-12 5.525221465959404e-12
999 1.4903865244557403e-06 1.7333863322119141e-15 3.5999999999999987e-05 3.5999999999999987e-05 2.7999999999999996e-05 0 0 0 1.4046562068718135e-11 -2.8093124137436273e-12 4.2139686206154404e-12
1000 2.3236548878116141e-06 6.5692153940601999e-15 3.5999999999999987e-05 3.5999999999999987e-05 3.5999999999999987e-05 0 0 0 2.1899931375080944e-11 -4.3799862750161895e-12 6.5699794125242826e-12
