LAMMPS (22 Jul 2025 - Update 6)
units si
atom_style sphere
boundary p p p
newton off
processors 1 1 1
read_data particles.data
Reading data file ...
  orthogonal box = (-4e-05 -4e-05 -4e-05) to (4e-05 4e-05 4e-05)
  1 by 1 by 1 MPI processor grid
  reading atoms ...
  1000 atoms
  reading velocities ...
  1000 velocities
  read_data CPU = 0.006 seconds
comm_modify vel yes
pair_style zero 6e-6
pair_coeff * *
neighbor 1e-6 bin
neigh_modify every 1 delay 0 check no
fix integrator all nve/sphere
fix coupling all frozen/flow/drag ../../fields/UNIFORM_FIELD.h5 0.001 25 trajectory -1 0 0 0 0
timestep 6.2499999999999991e-11
thermo 100
thermo_style custom step atoms time ke
thermo_modify lost error norm no format float %.17g
run 0
Generated 0 of 0 mixed pair_coeff terms from geometric mixing rule
Neighbor list info ...
  update: every = 1 steps, delay = 0 steps, check = no
  max neighbors/atom: 2000, page size: 100000
  master list distance cutoff = 7e-06
  ghost atom cutoff = 7e-06
  binsize = 3.5e-06, bins = 23 23 23
  1 neighbor lists, perpetual/occasional/extra = 1 0 0
  (1) pair zero, perpetual
      attributes: half, newton off
      pair build: half/bin/atomonly/newtoff
      stencil: full/bin/3d
      bin: standard
Per MPI rank memory allocation (min/avg/max) = 3.927 | 3.927 | 3.927 Mbytes
   Step        Atoms         Time          KinEng    
         0        1000  0 0
Loop time of 1.493e-06 on 1 procs for 0 steps with 1000 atoms

67.0% CPU use with 1 MPI tasks x no OpenMP threads

MPI task timing breakdown:
Section |  min time  |  avg time  |  max time  |%varavg| %total
---------------------------------------------------------------
Pair    | 0          | 0          | 0          |   0.0 |  0.00
Neigh   | 0          | 0          | 0          |   0.0 |  0.00
Comm    | 0          | 0          | 0          |   0.0 |  0.00
Output  | 0          | 0          | 0          |   0.0 |  0.00
Modify  | 0          | 0          | 0          |   0.0 |  0.00
Other   |            | 1.493e-06  |            |       |100.00

Nlocal:           1000 ave        1000 max        1000 min
Histogram: 1 0 0 0 0 0 0 0 0 0
Nghost:            728 ave         728 max         728 min
Histogram: 1 0 0 0 0 0 0 0 0 0
Neighs:              0 ave           0 max           0 min
Histogram: 1 0 0 0 0 0 0 0 0 0

Total # of neighbors = 0
Ave neighs/atom = 0
Neighbor list builds = 0
Dangerous builds not checked
write_dump all custom initial.dump id diameter mass xu yu zu vx vy vz fx fy fz modify sort id format float %.17g
run 1000
Generated 0 of 0 mixed pair_coeff terms from geometric mixing rule
Per MPI rank memory allocation (min/avg/max) = 3.927 | 3.927 | 3.927 Mbytes
   Step        Atoms         Time          KinEng    
         0        1000  0 0
       100        1000  6.2499999999999989e-09 1.9215579265142224e-21
       200        1000  1.2499999999999998e-08 7.3847918323083089e-21
       300        1000  1.8749999999999996e-08 1.5977891113332785e-20
       400        1000  2.4999999999999996e-08 2.733708057326971e-20
       500        1000  3.1249999999999999e-08 4.1140305848856138e-20
       600        1000  3.7499999999999992e-08 5.7101855488047093e-20
       700        1000  4.3749999999999991e-08 7.4967766215308749e-20
       800        1000  4.9999999999999991e-08 9.4511885054043046e-20
       900        1000  5.6249999999999991e-08 1.1553248403233817e-19
      1000        1000  6.2499999999999997e-08 1.3784934116729095e-19
Loop time of 1.10651 on 1 procs for 1000 steps with 1000 atoms

99.3% CPU use with 1 MPI tasks x no OpenMP threads

MPI task timing breakdown:
Section |  min time  |  avg time  |  max time  |%varavg| %total
---------------------------------------------------------------
Pair    | 3.9337e-05 | 3.9337e-05 | 3.9337e-05 |   0.0 |  0.00
Neigh   | 0.12107    | 0.12107    | 0.12107    |   0.0 | 10.94
Comm    | 0.013397   | 0.013397   | 0.013397   |   0.0 |  1.21
Output  | 9.3724e-05 | 9.3724e-05 | 9.3724e-05 |   0.0 |  0.01
Modify  | 0.96869    | 0.96869    | 0.96869    |   0.0 | 87.54
Other   |            | 0.003224   |            |       |  0.29

Nlocal:           1000 ave        1000 max        1000 min
Histogram: 1 0 0 0 0 0 0 0 0 0
Nghost:            728 ave         728 max         728 min
Histogram: 1 0 0 0 0 0 0 0 0 0
Neighs:              0 ave           0 max           0 min
Histogram: 1 0 0 0 0 0 0 0 0 0

Total # of neighbors = 0
Ave neighs/atom = 0
Neighbor list builds = 1000
Dangerous builds not checked
write_dump all custom final.dump id diameter mass xu yu zu vx vy vz fx fy fz modify sort id format float %.17g
print "COUPLING_CASE_COMPLETED"
COUPLING_CASE_COMPLETED
Total wall time: 0:00:01
