LAMMPS (2 Sep 2026)
units si
atom_style sphere
boundary p p p
newton off
processors 1 1 1
read_data particles.data
Reading data file ...
  orthogonal box = (-4e-05 -4e-05 -4e-05) to (4e-05 4e-05 4e-05)
  1 by 1 by 1 MPI processor grid
  reading atoms ...
  1 atoms
  reading velocities ...
  1 velocities
  read_data CPU = 0.001 seconds
comm_modify vel yes
pair_style zero 6e-6
pair_coeff * *
neighbor 1e-6 bin
neigh_modify every 1 delay 0 check no
fix integrator all nve/sphere
fix coupling all frozen/flow/drag ../../fields/LINEAR_FIELD.h5 0.001 1 trajectory -1 0 0 0 0
timestep 6.2499999999999991e-11
thermo 7665
thermo_style custom step atoms time ke
thermo_modify lost error norm no format float %.17g
run 0
Generated 0 of 0 mixed pair_coeff terms from geometric mixing rule
Neighbor list info ...
  update: every = 1 steps, delay = 0 steps, check = no
  max neighbors/atom: 2000, page size: 100000
  master list distance cutoff = 7e-06
  ghost atom cutoff = 7e-06
  binsize = 3.5e-06, bins = 23 23 23
  1 neighbor lists, perpetual/occasional/extra = 1 0 0
  (1) pair zero, perpetual
      attributes: half, newton off
      pair build: half/bin/atomonly/newtoff
      stencil: full/bin/3d
      bin: standard
Per MPI rank memory allocation (min/avg/max) = 3.89 | 3.89 | 3.89 Mbytes
   Step        Atoms         Time          KinEng    
         0           1  0 0
Loop time of 8.61e-07 on 1 procs for 0 steps with 1 atoms

0.0% CPU use with 1 MPI tasks x no OpenMP threads

MPI task timing breakdown:
Section |  min time  |  avg time  |  max time  |%varavg| %total
---------------------------------------------------------------
Pair    | 0          | 0          | 0          |   0.0 |  0.00
Neigh   | 0          | 0          | 0          |   0.0 |  0.00
Comm    | 0          | 0          | 0          |   0.0 |  0.00
Output  | 0          | 0          | 0          |   0.0 |  0.00
Modify  | 0          | 0          | 0          |   0.0 |  0.00
Other   |            | 8.61e-07   |            |       |100.00

Nlocal:              1 ave           1 max           1 min
Histogram: 1 0 0 0 0 0 0 0 0 0
Nghost:              0 ave           0 max           0 min
Histogram: 1 0 0 0 0 0 0 0 0 0
Neighs:              0 ave           0 max           0 min
Histogram: 1 0 0 0 0 0 0 0 0 0

Total # of neighbors = 0
Ave neighs/atom = 0
Neighbor list builds = 0
Dangerous builds not checked
write_dump all custom initial.dump id diameter mass xu yu zu vx vy vz fx fy fz modify sort id format float %.17g
run 76653
Generated 0 of 0 mixed pair_coeff terms from geometric mixing rule
Per MPI rank memory allocation (min/avg/max) = 3.89 | 3.89 | 3.89 Mbytes
   Step        Atoms         Time          KinEng    
         0           1  0 0
      7665           1  4.7906249999999991e-07 0
     15330           1  9.5812499999999983e-07 0
     22995           1  1.4371874999999997e-06 0
     30660           1  1.9162499999999997e-06 0
     38325           1  2.3953124999999998e-06 0
     45990           1  2.8743749999999995e-06 0
     53655           1  3.3534374999999996e-06 0
     61320           1  3.8324999999999993e-06 0
     68985           1  4.3115624999999994e-06 0
     76650           1  4.7906249999999996e-06 0
     76653           1  4.7908124999999991e-06 0
Loop time of 0.792216 on 1 procs for 76653 steps with 1 atoms

99.5% CPU use with 1 MPI tasks x no OpenMP threads

MPI task timing breakdown:
Section |  min time  |  avg time  |  max time  |%varavg| %total
---------------------------------------------------------------
Pair    | 0.0020227  | 0.0020227  | 0.0020227  |   0.0 |  0.26
Neigh   | 0.43385    | 0.43385    | 0.43385    |   0.0 | 54.76
Comm    | 0.012167   | 0.012167   | 0.012167   |   0.0 |  1.54
Output  | 5.5173e-05 | 5.5173e-05 | 5.5173e-05 |   0.0 |  0.01
Modify  | 0.33658    | 0.33658    | 0.33658    |   0.0 | 42.49
Other   |            | 0.007548   |            |       |  0.95

Nlocal:              1 ave           1 max           1 min
Histogram: 1 0 0 0 0 0 0 0 0 0
Nghost:              0 ave           0 max           0 min
Histogram: 1 0 0 0 0 0 0 0 0 0
Neighs:              0 ave           0 max           0 min
Histogram: 1 0 0 0 0 0 0 0 0 0

Total # of neighbors = 0
Ave neighs/atom = 0
Neighbor list builds = 76653
Dangerous builds not checked
write_dump all custom final.dump id diameter mass xu yu zu vx vy vz fx fy fz modify sort id format float %.17g
print "COUPLING_CASE_COMPLETED"
COUPLING_CASE_COMPLETED
Total wall time: 0:00:00
