LAMMPS (2 Sep 2026)
KOKKOS mode with Kokkos version 5.2.1 is enabled
  using double precision
  using view layout = legacy
  will use up to 1 GPU(s) per node
package kokkos
package kokkos neigh half newton off gpu/aware off
units si
atom_style sphere
boundary p p p
newton off
processors 1 1 1
read_data particles.data
Reading data file ...
  orthogonal box = (-6.4e-05 -6.4e-05 -6.4e-05) to (6.4e-05 6.4e-05 6.4e-05)
  1 by 1 by 1 MPI processor grid
  reading atoms ...
  1000 atoms
  reading velocities ...
  1000 velocities
  read_data CPU = 0.011 seconds
comm_modify vel yes
pair_style zero 6e-6
pair_coeff * *
neighbor 1e-6 bin
neigh_modify every 1 delay 0 check no
fix passive all sonovue/passive/flow ../../fields/UNIFORM_FIELD.h5 2 trajectory NONE 0 0
timestep 4.7012332740341915e-05
thermo 20
thermo_style custom step atoms time
thermo_modify lost error norm no format float %.17g
run 0

CITE-CITE-CITE-CITE-CITE-CITE-CITE-CITE-CITE-CITE-CITE-CITE-CITE

Your simulation uses code contributions which should be cited:

- KOKKOS package: https://doi.org/10.1145/3731599.3767498

@inproceedings{Johansson25,
 author = {A. Johansson and E. Weinberg and C. Trott and M. McCarthy and S. Moore},
 title = {{LAMMPS-KOKKOS}: {P}erformance Portable Molecular Dynamics Across Exascale Architectures},
 year = 2025,
 booktitle = {Proceedings of the SC '25 Workshops of the International Conference for High Performance Computing,
  Networking, Storage and Analysis},
 pages = {1217–1232},
}

CITE-CITE-CITE-CITE-CITE-CITE-CITE-CITE-CITE-CITE-CITE-CITE-CITE

Generated 0 of 0 mixed pair_coeff terms from geometric mixing rule
Neighbor list info ...
  update: every = 1 steps, delay = 0 steps, check = no
  max neighbors/atom: 2000, page size: 100000
  master list distance cutoff = 7e-06
  ghost atom cutoff = 7e-06
  binsize = 7e-06, bins = 19 19 19
  1 neighbor lists, perpetual/occasional/extra = 1 0 0
  (1) pair zero, perpetual
      attributes: half, newton off
      pair build: half/bin/atomonly/newtoff
      stencil: full/bin/3d
      bin: standard
Per MPI rank memory allocation (min/avg/max) = 4.158 | 4.158 | 4.158 Mbytes
   Step        Atoms         Time     
         0        1000  0
Loop time of 0.000421266 on 1 procs for 0 steps with 1000 atoms

24.9% CPU use with 1 MPI tasks x 1 OpenMP threads

MPI task timing breakdown:
Section |  min time  |  avg time  |  max time  |%varavg| %total
---------------------------------------------------------------
Pair    | 0          | 0          | 0          |   0.0 |  0.00
Neigh   | 0          | 0          | 0          |   0.0 |  0.00
Comm    | 0          | 0          | 0          |   0.0 |  0.00
Output  | 0          | 0          | 0          |   0.0 |  0.00
Modify  | 0          | 0          | 0          |   0.0 |  0.00
Other   |            | 0.0004213  |            |       |100.00

Nlocal:           1000 ave        1000 max        1000 min
Histogram: 1 0 0 0 0 0 0 0 0 0
Nghost:              0 ave           0 max           0 min
Histogram: 1 0 0 0 0 0 0 0 0 0
Neighs:              0 ave           0 max           0 min
Histogram: 1 0 0 0 0 0 0 0 0 0

Total # of neighbors = 0
Ave neighs/atom = 0
Neighbor list builds = 0
Dangerous builds not checked
write_dump all custom initial.dump id diameter xu yu zu vx vy vz modify sort id format float %.17g
run 200
Generated 0 of 0 mixed pair_coeff terms from geometric mixing rule
Per MPI rank memory allocation (min/avg/max) = 4.158 | 4.158 | 4.158 Mbytes
   Step        Atoms         Time     
         0        1000  0
        20        1000  0.00094024665480683836
        40        1000  0.0018804933096136767
        60        1000  0.0028207399644205149
        80        1000  0.0037609866192273534
       100        1000  0.0047012332740341911
       120        1000  0.0056414799288410297
       140        1000  0.0065817265836478683
       160        1000  0.0075219732384547069
       180        1000  0.0084622198932615446
       200        1000  0.0094024665480683823
Loop time of 0.656103 on 1 procs for 200 steps with 1000 atoms

99.0% CPU use with 1 MPI tasks x 1 OpenMP threads

MPI task timing breakdown:
Section |  min time  |  avg time  |  max time  |%varavg| %total
---------------------------------------------------------------
Pair    | 0.010354   | 0.010354   | 0.010354   |   0.0 |  1.58
Neigh   | 0.060489   | 0.060489   | 0.060489   |   0.0 |  9.22
Comm    | 0.053493   | 0.053493   | 0.053493   |   0.0 |  8.15
Output  | 5.2598e-05 | 5.2598e-05 | 5.2598e-05 |   0.0 |  0.01
Modify  | 0.4988     | 0.4988     | 0.4988     |   0.0 | 76.02
Other   |            | 0.03291    |            |       |  5.02

Nlocal:           1000 ave        1000 max        1000 min
Histogram: 1 0 0 0 0 0 0 0 0 0
Nghost:              0 ave           0 max           0 min
Histogram: 1 0 0 0 0 0 0 0 0 0
Neighs:              0 ave           0 max           0 min
Histogram: 1 0 0 0 0 0 0 0 0 0

Total # of neighbors = 0
Ave neighs/atom = 0
Neighbor list builds = 200
Dangerous builds not checked
write_dump all custom final.dump id diameter xu yu zu vx vy vz modify sort id format float %.17g
print "PASSIVE_CASE_COMPLETED"
PASSIVE_CASE_COMPLETED
Total wall time: 0:00:00
